@relation 'Stu Activity-weka.filters.unsupervised.attribute.Normalize-S1.0-T0.0'

@attribute Student_ID numeric
@attribute College_ID {CLG0030,CLG0061,CLG0036,CLG0055,CLG0004,CLG0015,CLG0071,CLG0096,CLG0097,CLG0057,CLG0063,CLG0077,CLG0064,CLG0017,CLG0053,CLG0040,CLG0070,CLG0050,CLG0068,CLG0072,CLG0034,CLG0087,CLG0073,CLG0024,CLG0008,CLG0025,CLG0018,CLG0014,CLG0006,CLG0082,CLG0090,CLG0075,CLG0094,CLG0089,CLG0016,CLG0076,CLG0047,CLG0054,CLG0058,CLG0100,CLG0046,CLG0001,CLG0041,CLG0093,CLG0027,CLG0062,CLG0081,CLG0028,CLG0020,CLG0051,CLG0069,CLG0088,CLG0038,CLG0029,CLG0035,CLG0019,CLG0005,CLG0026,CLG0066,CLG0045,CLG0043,CLG0074,CLG0048,CLG0012,CLG0099,CLG0011,CLG0091,CLG0083,CLG0080,CLG0044,CLG0059,CLG0031,CLG0039,CLG0065,CLG0079,CLG0095,CLG0085,CLG0033,CLG0007,CLG0037,CLG0032,CLG0049,CLG0056,CLG0084,CLG0067,CLG0098,CLG0042,CLG0021,CLG0009,CLG0010,CLG0078,CLG0013,CLG0003,CLG0092,CLG0086,CLG0023,CLG0022,CLG0060,CLG0002}
@attribute IQ numeric
@attribute Prev_Sem_Result numeric
@attribute CGPA numeric
@attribute Academic_Performance numeric
@attribute Internship_Experience {No,Yes}
@attribute Extra_Curricular_Score numeric
@attribute Communication_Skills numeric
@attribute Projects_Completed numeric
@attribute Placement {No,Yes}

@data
0,CLG0030,0.528302,0.321285,0.292388,0.777778,No,0.8,0.777778,0.8,No
0.001001,CLG0061,0.433962,0.10241,0.134948,0.777778,No,0.7,0.777778,0,No
0.002002,CLG0036,0.54717,0.070281,0.214533,0.888889,No,0.3,0,0.2,No
0.003003,CLG0055,0.669811,0.092369,0.200692,0.555556,Yes,0.1,0.555556,0.2,No
0.004004,CLG0004,0.424528,0.582329,0.536332,0.666667,No,0.8,1,0.4,No
0.005005,CLG0015,0.424528,0.050201,0.126298,0.666667,No,?,0.777778,0,No
0.006006,CLG0071,0.679245,0.335341,0.344291,0.444444,No,0.7,0.777778,0.4,Yes
0.007007,CLG0096,0.566038,0.75502,0.721453,0.666667,No,0.3,0,0.4,Yes
0.008008,CLG0097,0.386792,0.293173,0.301038,0.888889,No,0.7,?,1,No
0.009009,CLG0057,0.537736,0.76506,0.693772,0.333333,No,0.5,0.888889,0.2,No
0.01001,CLG0063,0.396226,0.746988,0.745675,0.111111,Yes,?,0.555556,0,No
0.011011,CLG0077,0.396226,0.24498,0.33218,0.777778,No,0.5,0.666667,0.8,No
0.012012,CLG0064,0.490566,0.728916,0.764706,0.666667,Yes,0.8,0.555556,0.2,No
0.013013,CLG0017,0.188679,0.748996,0.65917,0.555556,No,0,0.444444,0.4,No
0.014014,CLG0053,0.216981,0.39759,0.470588,0.666667,No,0,0,0.4,No
0.015015,CLG0040,0.377358,0.208835,0.209343,0.222222,No,0.4,0.111111,0.6,No
0.016016,CLG0070,0.311321,0.522088,0.510381,0.555556,No,0,1,0,No
0.017017,CLG0050,0.5,0.923695,0.937716,1,Yes,0.9,0.111111,0.8,No
0.018018,CLG0068,0.330189,0.640562,0.615917,0.666667,No,0.8,0.888889,0.8,Yes
0.019019,CLG0015,0.254717,0.170683,0.16782,0.666667,Yes,0.3,0.555556,0.4,No
0.02002,CLG0072,0.660377,0.682731,0.602076,0.444444,Yes,0.1,0.222222,0.6,Yes
0.021021,CLG0034,0.424528,0.427711,0.435986,0.222222,Yes,0.2,0.222222,0.6,No
0.022022,CLG0030,0.471698,0.592369,0.628028,0.111111,Yes,0.8,1,0,No
0.023023,CLG0087,0.254717,0.73494,0.792388,0.666667,Yes,1,1,0.4,Yes
0.024024,CLG0073,0.377358,0.514056,0.565744,0.333333,Yes,0.7,0.111111,0.4,No
0.025025,CLG0024,0.471698,0.815261,0.84083,0.111111,No,0.2,0.666667,0.4,?
0.026026,CLG0008,0.292453,0.722892,0.738754,0.777778,No,0.7,0,0,No
0.027027,CLG0057,0.509434,0.616466,0.67301,0.111111,No,0.3,0,0.8,No
0.028028,CLG0070,0.367925,0.148594,0.128028,0.555556,Yes,0.5,1,0.2,No
0.029029,CLG0025,0.415094,0.837349,0.868512,0.333333,Yes,0.3,0.222222,0.6,No
0.03003,CLG0077,0.367925,0.937751,0.863322,0.888889,Yes,1,0,0.8,No
0.031031,CLG0034,0.716981,0.134538,0.261246,0.444444,No,0.4,0.222222,?,No
0.032032,CLG0025,0.45283,0.487952,0.420415,0.333333,No,0.9,0.888889,0.8,No
0.033033,CLG0018,0.311321,0.257028,0.33218,0.777778,No,0.8,0.666667,0.8,No
0.034034,CLG0073,0.575472,0.75502,0.764706,0.222222,Yes,0.1,0.888889,0.8,Yes
0.035035,CLG0097,0.283019,0.722892,0.782007,0.888889,Yes,0.8,0.666667,0.8,No
0.036036,CLG0070,0.490566,0.138554,0.238754,0.777778,Yes,0.2,0.888889,0.4,No
0.037037,CLG0014,0.179245,0.879518,0.809689,0.777778,No,0.4,0.222222,0.8,No
0.038038,CLG0006,0.273585,0.178715,0.237024,1,Yes,0.6,0.666667,0.2,No
0.039039,CLG0082,0.481132,0.799197,0.738754,0.444444,No,0.1,0.555556,0.2,No
0.04004,CLG0090,0.566038,0.455823,0.413495,0,No,0.3,0.111111,0.6,No
0.041041,CLG0036,0.481132,0.327309,0.311419,1,No,0,0.555556,1,No
0.042042,CLG0036,0.443396,0.156627,0.15917,0.888889,No,1,0.222222,0,No
0.043043,CLG0075,0.415094,0.166667,0.224913,0.111111,Yes,0.2,0.111111,0.2,No
0.044044,CLG0018,0.245283,0.662651,0.714533,0,Yes,0.5,0.444444,0.2,No
0.045045,CLG0015,0.358491,0.550201,0.617647,0.555556,Yes,0.1,0.444444,0.2,No
0.046046,CLG0094,0.396226,0.120482,0.098616,0,Yes,0.7,0.111111,0.2,No
0.047047,CLG0089,0.603774,0.110442,0.095156,1,Yes,0.6,0.222222,0,No
0.048048,CLG0016,0.509434,0.070281,0.089965,1,No,0.2,0.777778,0,No
0.049049,CLG0076,0.207547,0.74498,0.67301,1,Yes,0,?,1,No
0.05005,CLG0014,0.5,0.712851,0.615917,0.666667,No,0.9,0.777778,0.8,Yes
0.051051,CLG0047,0.40566,0.056225,0.102076,0.666667,Yes,0.3,1,1,No
0.052052,CLG0054,0.358491,0.560241,0.570934,0,Yes,0.3,0.333333,0.2,No
0.053053,CLG0058,0.54717,0.082329,0.157439,1,No,1,0.333333,0.2,No
0.054054,CLG0077,0.603774,0.905622,0.859862,0.444444,No,0.4,0.555556,0.6,Yes
0.055055,CLG0030,?,0.909639,0.82872,0.222222,No,0.2,1,0.6,Yes
0.056056,CLG0100,0.339623,0.698795,0.711073,0.111111,No,1,0.444444,0.6,No
0.057057,CLG0046,0.415094,0.927711,0.929066,0.444444,No,0.1,0.444444,0.6,No
0.058058,CLG0016,0.5,0.813253,0.747405,0.444444,No,0.1,0.888889,0.8,Yes
0.059059,CLG0001,0.59434,0.829317,0.716263,0.111111,Yes,0.7,0.555556,0.4,Yes
0.06006,CLG0041,0.386792,0.570281,0.529412,0.555556,No,0.6,0.222222,0.6,No
0.061061,CLG0093,0.433962,0.305221,0.273356,0.666667,No,0,0.333333,0.6,No
0.062062,CLG0027,0.301887,0.216867,0.254325,0,No,0.8,0.888889,0,No
0.063063,CLG0077,0.292453,0.327309,0.295848,0.222222,No,0.2,0.555556,1,No
0.064064,CLG0062,0.575472,0.628514,0.607266,0.333333,No,0.2,0.777778,0.2,Yes
0.065065,CLG0081,0.650943,0.170683,0.17128,0.111111,No,0,0.666667,0.8,No
0.066066,CLG0028,0.443396,0.257028,0.33564,1,Yes,1,0,0.2,No
0.067067,CLG0020,0.603774,0.467871,0.394464,0.444444,Yes,0.3,0,0.4,No
0.068068,CLG0055,0.509434,0.232932,0.282007,0.333333,No,0.9,1,0.8,No
0.069069,CLG0051,0.367925,0.588353,0.522491,0.111111,No,1,0.666667,0.4,No
0.07007,CLG0069,0.509434,0.925703,0.783737,0,Yes,0.1,0.111111,0.2,No
0.071071,CLG0088,0.679245,0.748996,0.782007,0.777778,No,0.2,0.888889,0,Yes
0.072072,CLG0073,0.45283,0.666667,0.676471,0.111111,No,1,1,0.6,Yes
0.073073,CLG0097,0.679245,0.582329,0.50519,0.333333,No,0,0.888889,0.2,No
0.074074,CLG0034,0.084906,0.487952,0.520761,1,Yes,0.2,0.111111,0.8,No
0.075075,CLG0027,0.575472,0.184739,0.250865,0.444444,No,0.3,0.888889,0.6,Yes
0.076076,CLG0097,0.471698,0.895582,0.8391,0.111111,No,0.5,0.888889,0.8,Yes
0.077077,CLG0038,0.415094,0.246988,0.271626,1,No,0.2,1,0.4,No
0.078078,CLG0029,0.471698,0.090361,0.217993,0.888889,Yes,1,0.555556,0.8,No
0.079079,CLG0035,0.179245,0.751004,0.676471,0.111111,No,0.5,0.444444,0,No
0.08008,CLG0020,0.424528,0.174699,0.205882,0.555556,No,0.1,1,0.4,No
0.081081,CLG0019,0.509434,0.371486,0.363322,0.666667,No,1,0.111111,1,No
0.082082,CLG0005,0.669811,0.026104,0.141869,0.555556,No,0.7,0.555556,1,No
0.083083,CLG0025,0.386792,0.136546,0.262976,0.333333,No,0.4,0.888889,0.2,No
0.084084,CLG0093,0.339623,0.172691,0.282007,0,No,0,0.222222,0.6,No
0.085085,CLG0026,0.386792,0.052209,0.16955,0.111111,No,0.5,0.222222,0.6,No
0.086086,CLG0051,0.584906,0.656627,0.723183,1,No,0.2,0.333333,0,No
0.087087,CLG0066,0.5,0.839357,0.83045,1,Yes,0.3,1,0.8,Yes
0.088088,CLG0061,0.386792,0.373494,0.437716,0.555556,No,0.9,0.333333,0.2,No
0.089089,CLG0015,0.528302,0.875502,0.910035,0.777778,Yes,0.7,0,1,No
0.09009,CLG0045,0.471698,0.212851,0.17128,0.222222,Yes,0.7,0.111111,0.8,No
0.091091,CLG0006,0.59434,0.325301,0.375433,0.666667,No,1,0.555556,1,No
0.092092,CLG0058,0.358491,0.148594,0.242215,0.888889,No,0.7,0.444444,0.8,No
0.093093,CLG0001,0.415094,0.620482,0.679931,0.333333,Yes,0.4,1,0,No
0.094094,CLG0073,0.40566,0.419679,0.5,0.666667,No,0,0.333333,1,?
0.095095,CLG0043,0.254717,0.614458,0.6609,0.666667,No,0.8,1,0.4,Yes
0.096096,CLG0016,0.5,0.763052,0.807958,1,No,1,0.888889,1,Yes
0.097097,CLG0014,0.490566,0.546185,0.550173,0.888889,Yes,0.8,0.111111,0.4,No
0.098098,CLG0074,0.462264,0.628514,0.529412,0.222222,No,0.7,0.777778,0,No
0.099099,CLG0019,0.424528,0.937751,0.795848,0,Yes,1,0.333333,0,No
0.1001,CLG0051,0.254717,0.299197,0.33737,0.777778,Yes,0.2,0.888889,0,No
0.101101,CLG0008,0.396226,0.359438,0.371972,0.333333,No,0.5,0.333333,0.8,No
0.102102,CLG0048,0.40566,0.718876,0.683391,0.111111,No,0.6,0.111111,1,No
0.103103,CLG0012,0.339623,0.61245,0.583045,0.444444,No,0.3,0.555556,1,No
0.104104,CLG0070,0.433962,0.176707,0.297578,0.333333,No,0.9,0.888889,0.8,No
0.105105,CLG0035,0.518868,?,0.371972,0,Yes,0.6,0.666667,0.2,No
0.106106,CLG0070,0.726415,0.467871,0.538062,0.666667,No,0.8,0,0,No
0.107107,CLG0006,0.481132,0.419679,0.50346,0.333333,No,0.5,0.888889,0.8,No
0.108108,CLG0099,?,0.176707,0.224913,0.777778,Yes,0.1,0.555556,0.4,No
0.109109,CLG0011,0.443396,0.925703,0.861592,0.888889,No,0.5,0.888889,1,Yes
0.11011,CLG0038,0.188679,0.763052,0.775087,0.777778,Yes,0.2,0.111111,1,No
0.111111,CLG0091,0.45283,0.481928,0.524221,0,No,0.6,0.666667,0,No
0.112112,CLG0026,0.462264,0.680723,0.629758,0.777778,Yes,0.2,0.777778,0.4,Yes
0.113113,CLG0028,0.801887,0.899598,0.778547,0.444444,No,0.7,0.777778,0.6,Yes
0.114114,CLG0072,0.433962,0.134538,0.147059,0,Yes,1,0.444444,0.2,No
0.115115,CLG0089,0.5,0.248996,0.223183,0.888889,Yes,1,0.666667,0.6,No
0.116116,CLG0083,0.45283,0.542169,0.50346,0.888889,No,0.4,0.666667,0.2,No
0.117117,CLG0080,0.292453,0.801205,0.721453,0.666667,No,0.2,0.222222,0,No
0.118118,CLG0050,0.622642,0.034137,0.126298,0.666667,No,0,0.111111,1,No
0.119119,CLG0058,0.566038,0.985944,1,0,?,0.4,0.444444,0.2,No
0.12012,CLG0026,0.566038,?,0.49654,0.888889,No,0.9,0.333333,0.8,No
0.121121,CLG0044,0.330189,0.359438,0.456747,0,Yes,0.9,0.777778,0.4,No
0.122122,CLG0015,0.660377,0.291165,0.371972,0.666667,No,1,0.444444,1,No
0.123123,CLG0076,0.254717,0.172691,0.261246,0.888889,No,0.2,0.888889,0.8,No
0.124124,CLG0024,0.537736,0.793173,0.740484,0.888889,No,0.3,0.666667,0,No
0.125125,CLG0077,0.764151,0.957831,0.866782,0.444444,No,0.9,0,0.6,Yes
0.126126,CLG0059,0.320755,0.413655,0.489619,0.555556,No,0.3,0.111111,0.4,No
0.127127,CLG0057,0.377358,0.953815,0.965398,0.111111,No,0.2,0.777778,0,No
0.128128,CLG0017,0.471698,0.825301,0.775087,0.111111,No,0.5,1,0.8,Yes
0.129129,CLG0077,0.386792,0.481928,0.403114,1,No,0.5,0.777778,0.8,No
0.13013,CLG0081,0.235849,0.674699,0.704152,0.888889,No,0,0.111111,0.2,No
0.131131,CLG0001,0.471698,0.433735,0.410035,0,No,0.3,0.666667,0.2,No
0.132132,CLG0011,0.311321,0.558233,0.468858,1,Yes,0,0.777778,0.6,No
0.133133,CLG0020,0.528302,0.056225,0.17301,0.444444,Yes,0.6,0.333333,0.2,No
0.134134,CLG0031,0.330189,0.696787,0.676471,0.666667,No,0.6,0.222222,0.2,No
0.135135,CLG0099,0.679245,0.050201,0.148789,1,Yes,0.5,1,0.2,No
0.136136,CLG0039,0.349057,0.819277,0.849481,0.555556,No,1,0.888889,0.6,Yes
0.137137,CLG0063,0.415094,0.825301,0.790657,0.555556,No,0.1,0.111111,0,No
0.138138,CLG0006,0.575472,0.236948,0.276817,0.555556,No,0.3,0.222222,1,No
0.139139,CLG0099,0.283019,0.323293,0.314879,0.777778,No,0.2,0.777778,0.4,No
0.14014,CLG0028,0.490566,0.481928,0.455017,0.666667,Yes,1,0.111111,0,No
0.141141,CLG0051,0.641509,0.596386,?,0.444444,No,0.7,0.444444,1,Yes
0.142142,CLG0053,0.226415,0.287149,0.311419,?,No,0.1,1,1,No
0.143143,CLG0044,0.481132,0.592369,0.524221,0.111111,Yes,0.9,0.777778,0,No
0.144144,CLG0065,0.490566,0.297189,0.257785,1,No,0.1,0.666667,0,No
0.145145,CLG0080,0.566038,0.054217,0.114187,0.555556,Yes,0,0.333333,0.8,No
0.146146,CLG0012,?,0,0.065744,1,No,0.8,1,0.4,No
0.147147,CLG0028,0.273585,0.100402,0.185121,0.444444,No,0.2,0.888889,0.4,No
0.148148,CLG0079,0.528302,0.793173,0.750865,0.333333,Yes,0.7,0.111111,0.8,No
0.149149,CLG0072,0.5,0.963855,0.84083,1,No,0.6,0.666667,1,No
0.15015,CLG0068,0.490566,0.425703,0.441176,0.444444,No,0,0.666667,0.8,No
0.151151,CLG0095,0.509434,0.512048,0.584775,0.888889,No,1,0.666667,1,No
0.152152,CLG0030,0.358491,0.144578,0.138408,0.111111,Yes,0.5,0.666667,0.2,No
0.153153,CLG0035,0.490566,0.552209,0.581315,0.555556,No,0.7,0.444444,0.8,No
0.154154,CLG0006,0.5,0.14257,0.211073,0.888889,No,0.5,0,0.6,No
0.155155,CLG0085,0.358491,0.61245,0.643599,1,No,0.8,0.333333,0.8,No
0.156156,CLG0030,0.716981,0.935743,0.818339,0.444444,Yes,0.9,0.444444,0.2,No
0.157157,CLG0080,0.528302,0.194779,0.316609,0.555556,No,0.2,1,0.8,No
0.158158,CLG0063,0.292453,0.76506,0.752595,1,No,0.5,0.333333,0.6,No
0.159159,CLG0008,0.54717,0.022088,0.152249,0.333333,Yes,0.9,0.666667,0.8,No
0.16016,CLG0091,0.320755,0.375502,0.352941,0.444444,No,0.3,0.111111,1,No
0.161161,CLG0033,0.566038,0.108434,0.207612,0.777778,No,0.9,0.111111,0,No
0.162162,CLG0043,0.622642,0.351406,0.423875,0,Yes,0.2,0.111111,0.4,No
0.163163,CLG0076,0.339623,0.172691,0.204152,0,Yes,0.7,1,0.6,No
0.164164,CLG0043,0.59434,0.373494,0.373702,1,Yes,0.6,0.222222,0.6,No
0.165165,CLG0045,0.518868,0.417671,0.460208,0.333333,Yes,0.6,0.444444,0.6,No
0.166166,CLG0087,0.575472,0.299197,0.259516,1,Yes,0.4,1,1,Yes
0.167167,CLG0054,0.726415,0.656627,0.679931,0.222222,Yes,0,0.888889,0,Yes
0.168168,CLG0065,0.424528,0.919679,0.785467,0.444444,Yes,0.5,0.222222,0,No
0.169169,CLG0007,0.349057,0.399598,0.363322,1,Yes,0.5,0.555556,0.4,No
0.17017,CLG0036,0.330189,0.190763,0.264706,0.777778,Yes,0.2,0.555556,0.2,No
0.171171,CLG0025,0.339623,0.269076,0.235294,0,No,0.4,0.555556,0.4,No
0.172172,CLG0085,0.443396,0.855422,0.891003,0.444444,No,0.8,0.444444,0.6,No
0.173173,CLG0037,0.509434,0.572289,0.629758,0.444444,No,0.6,0.111111,0.6,?
0.174174,CLG0012,0.5,0.455823,0.487889,0.111111,Yes,0.7,0,0.6,No
0.175175,CLG0032,0.575472,0.148594,0.256055,0.444444,Yes,0.8,0.444444,0.4,No
0.176176,CLG0049,0.462264,0.449799,0.527682,0.777778,Yes,0.5,0.777778,0.2,No
0.177177,CLG0038,0.660377,0.277108,0.269896,1,Yes,0.4,1,0.2,No
0.178178,CLG0056,0.424528,0.945783,0.948097,0.666667,No,0.9,0.444444,0.4,No
0.179179,CLG0080,0.839623,0.885542,0.782007,0.111111,No,0.4,0.222222,1,Yes
0.18018,CLG0065,0.54717,0.082329,0.128028,0.555556,Yes,0.4,0.222222,0.6,No
0.181181,CLG0026,0.339623,0.516064,0.527682,1,No,0.3,0.111111,0.4,No
0.182182,CLG0057,0.301887,0.2249,0.302768,0,No,0.1,0.666667,0.4,No
0.183183,CLG0014,0.528302,0.409639,0.344291,1,No,0.6,0.111111,0.8,No
0.184184,CLG0056,0.424528,0.87751,0.792388,1,Yes,0.6,0.555556,0.8,No
0.185185,CLG0070,0.556604,0.528112,0.546713,0.222222,Yes,0.7,0.777778,0,No
0.186186,CLG0041,0.528302,0.333333,0.33564,0.555556,No,0.7,0.777778,0,No
0.187187,CLG0051,0.443396,0.206827,0.299308,0.888889,Yes,1,0.111111,0.4,No
0.188188,CLG0084,0.339623,0.801205,0.788927,0,No,0.7,0.555556,0.8,No
0.189189,CLG0067,0.245283,0.624498,0.564014,0.555556,Yes,0.8,0.222222,0.6,No
0.19019,CLG0012,0.396226,0.467871,0.415225,0.111111,Yes,0.5,0.888889,0,No
0.191191,CLG0097,0.575472,0.216867,0.282007,0.888889,Yes,0.3,0.222222,0.6,No
0.192192,CLG0049,0.490566,?,0.351211,0.111111,Yes,0.1,0,0.6,No
0.193193,CLG0001,0.283019,0.961847,0.844291,0.222222,No,0.4,0.888889,0,No
0.194194,CLG0019,0.481132,0.52008,0.491349,0.111111,Yes,0.5,0.777778,1,No
0.195195,CLG0066,0.509434,0.399598,0.382353,0.333333,Yes,0.6,0.111111,0.4,No
0.196196,CLG0058,0.330189,0.522088,0.455017,0.333333,No,0.5,1,0.8,No
0.197197,CLG0087,0.481132,0.779116,0.752595,1,Yes,0.3,1,0,No
0.198198,CLG0072,0.462264,0.339357,0.410035,0,Yes,0.3,0.222222,0.2,No
0.199199,CLG0098,0.292453,0.176707,0.238754,0.777778,Yes,0.6,0.666667,0.2,No
0.2002,CLG0004,0.509434,0.584337,0.633218,0.444444,Yes,0,0.555556,0.6,No
0.201201,CLG0008,0.537736,0.666667,0.583045,0.777778,No,0.2,0.777778,0.2,No
0.202202,CLG0027,0.613208,0.712851,0.676471,0.555556,Yes,0.9,1,0.6,Yes
0.203203,CLG0026,0.603774,0.883534,0.852941,0.111111,No,0.1,0.444444,1,Yes
0.204204,CLG0097,0.264151,0.371486,0.423875,0.666667,No,0.1,0.444444,1,No
0.205205,CLG0043,0.320755,0.074297,0.17128,1,No,0.6,0.111111,1,No
0.206206,CLG0040,0.528302,0.959839,0.939446,0.888889,No,0.4,0.555556,1,No
0.207207,CLG0050,0.528302,0.435743,0.474048,0.666667,Yes,0.2,0.444444,1,No
0.208208,CLG0067,0.528302,0.624498,0.539792,0.444444,No,0.8,0.888889,0.8,No
0.209209,CLG0073,1,0.666667,0.681661,0.333333,No,0.8,0.222222,0,No
0.21021,CLG0074,0.537736,0.546185,0.581315,?,No,0.2,0.444444,0,No
0.211211,CLG0029,0.622642,0.204819,0.33391,0.555556,No,0.1,0.222222,0.8,No
0.212212,CLG0085,0.59434,0.757028,0.757785,0.444444,Yes,0.2,0.888889,0.6,Yes
0.213213,CLG0042,0.54717,0.805221,0.799308,0.666667,Yes,0.8,0.888889,1,Yes
0.214214,CLG0018,0.415094,0.552209,0.550173,0.222222,Yes,0.7,1,0.4,No
0.215215,CLG0081,0.566038,0.487952,0.557093,0.888889,No,0.2,0.666667,0.2,No
0.216216,CLG0021,0.349057,0.11245,0.256055,0.333333,No,0.3,0,1,No
0.217217,CLG0067,0.424528,0.082329,0.192042,0.333333,No,0.4,0.888889,0.8,No
0.218218,CLG0062,0.386792,0.339357,0.384083,0.777778,No,0.3,0.888889,0.2,No
0.219219,CLG0027,0.471698,0.309237,0.266436,0.555556,Yes,1,1,0.4,No
0.22022,CLG0096,0.783019,0.955823,0.935986,0,Yes,0.1,0.444444,0.6,Yes
0.221221,CLG0093,0.188679,0.785141,0.785467,?,No,1,0.111111,1,No
0.222222,CLG0047,0.556604,0.660643,0.690311,0.888889,No,0.8,0,0.2,No
0.223223,CLG0093,0.226415,0.518072,0.453287,0.555556,No,0.1,0.111111,0.6,No
0.224224,CLG0026,0.386792,0.166667,0.242215,0.666667,Yes,0.4,0.333333,1,No
0.225225,CLG0009,0.613208,0.97992,0.882353,0.888889,No,1,0.333333,0.4,Yes
0.226226,CLG0091,0.462264,0.375502,0.441176,0.222222,Yes,0.8,0,0.6,No
0.227227,CLG0012,0.301887,0.104418,0.117647,0.444444,Yes,0.7,0.777778,0.4,No
0.228228,CLG0016,0.358491,0.493976,0.529412,0.444444,Yes,0,1,0,No
0.229229,CLG0047,0.556604,0.875502,0.790657,1,No,0.2,0.777778,0.2,No
0.23023,CLG0056,0.358491,0.889558,0.754325,0.666667,Yes,0.9,0.777778,0.2,No
0.231231,CLG0066,0.490566,0.008032,0.102076,0.111111,Yes,0.8,0.444444,0.4,No
0.232232,CLG0051,0.462264,0.88755,0.769896,0.333333,No,0.2,1,0.4,Yes
0.233233,CLG0027,0.367925,0.271084,0.33391,0.333333,No,1,0.111111,0.8,No
0.234234,CLG0073,0.764151,0.036145,0.178201,0.777778,Yes,0.3,0.333333,0.4,No
0.235235,CLG0066,0.54717,0.849398,0.885813,1,Yes,0.2,0,0.4,No
0.236236,CLG0062,0.169811,0.865462,0.773356,0.222222,No,0.6,1,0.6,Yes
0.237237,CLG0071,0.481132,0.596386,0.640138,0.111111,No,0.8,0,0.6,No
0.238238,CLG0008,0.367925,0.574297,0.541522,0.888889,No,?,1,0.2,No
0.239239,CLG0038,0.575472,0.815261,0.844291,0.333333,No,0.8,0.222222,0.6,Yes
0.24024,CLG0006,0.349057,0.787149,0.801038,0.888889,Yes,0.1,0.333333,0.6,No
0.241241,CLG0059,0.443396,0.891566,0.766436,0.555556,No,0.1,0.222222,0.2,No
0.242242,CLG0019,0.528302,0.552209,0.532872,0,No,0.8,0.222222,1,No
0.243243,CLG0079,0.575472,0.96988,0.880623,0.222222,No,0.6,0.777778,0,Yes
0.244244,CLG0056,0.283019,0.997992,0.982699,0.666667,No,0.4,0.333333,0.8,?
0.245245,CLG0028,0.40566,0.114458,0.155709,0.888889,Yes,0.4,0.222222,0.6,No
0.246246,CLG0094,0.386792,0.851406,0.83737,?,Yes,0.8,0.888889,0,No
0.247247,CLG0091,0.367925,0.5,0.520761,0.444444,Yes,1,0,0.8,No
0.248248,CLG0010,0.707547,0.38755,0.489619,0.777778,Yes,0.3,0.777778,0.2,No
0.249249,CLG0045,0.518868,0.614458,?,0.111111,No,1,0.444444,0.6,No
0.25025,CLG0095,0.283019,0.054217,0.107266,0.222222,No,0,0.777778,1,No
0.251251,CLG0065,0.584906,0.506024,0.546713,0.777778,No,0.5,1,0.6,Yes
0.252252,CLG0050,0.754717,0.871486,0.880623,0.888889,Yes,0.2,0.222222,0.4,Yes
0.253253,CLG0032,0.603774,0.212851,0.32526,1,No,0.1,0.555556,0.6,No
0.254254,CLG0061,0.245283,0.425703,0.365052,0.777778,Yes,0.3,0.666667,0.6,No
0.255255,CLG0016,0.386792,0.941767,0.849481,0.333333,Yes,0.8,0.777778,0,No
0.256256,CLG0006,0.641509,0.427711,0.410035,0.555556,No,0.7,0.666667,0,No
0.257257,CLG0066,0.358491,0.35743,0.368512,0.444444,Yes,0.6,0.666667,0.6,No
0.258258,CLG0062,0.518868,0.439759,0.394464,0.333333,No,0.1,0.111111,1,No
0.259259,CLG0066,0.566038,0.52008,0.520761,0.888889,Yes,0,0.222222,0.8,No
0.26026,CLG0067,0.330189,0.63253,0.645329,1,No,0.6,0.555556,0.2,No
0.261261,CLG0019,0.45283,0.801205,0.762976,0.222222,No,0.9,0.222222,1,No
0.262262,CLG0004,0,0.451807,0.491349,0,No,0.4,0.888889,0,No
0.263263,CLG0043,0.311321,0.819277,0.704152,0.666667,No,1,0.888889,1,Yes
0.264264,CLG0018,0.424528,0.534137,0.598616,1,Yes,0.7,0.555556,1,No
0.265265,CLG0082,0.283019,0.337349,0.439446,0.777778,Yes,0.4,0,0.8,No
0.266266,CLG0046,0.688679,0.658635,0.6609,0.222222,No,0.9,0,1,Yes
0.267267,CLG0046,0.254717,0.718876,0.757785,0.222222,No,0.4,0.333333,0.6,No
0.268268,CLG0085,0.396226,0.558233,0.489619,0.555556,No,0.7,1,0.4,No
0.269269,CLG0021,0.471698,0.054217,0.17128,0.111111,No,0.8,0.777778,0,No
0.27027,CLG0030,0.660377,0.168675,0.152249,0.555556,No,0.1,0.222222,1,No
0.271271,CLG0064,0.254717,0.285141,0.302768,0.444444,No,0.7,0.333333,0,No
0.272272,CLG0041,0.622642,0.281124,0.283737,0.666667,No,0.6,0.555556,0.4,No
0.273273,CLG0017,0.462264,0.674699,0.66955,0.888889,No,0.7,0.888889,0.6,Yes
0.274274,CLG0005,0.320755,0.016064,0.051903,0.888889,No,0.2,0.333333,0,No
0.275275,CLG0005,0.518868,0.757028,0.749135,0,No,0.3,0.222222,0.6,No
0.276276,CLG0073,0.481132,0.26506,0.278547,0.666667,No,0.6,1,0.8,No
0.277277,CLG0075,0.367925,0.309237,0.401384,0.222222,No,0.4,1,0,No
0.278278,CLG0048,0.471698,0.528112,0.550173,0.333333,Yes,0.6,0.888889,0.6,No
0.279279,CLG0078,0.40566,0.214859,0.209343,0.111111,Yes,0.5,0.666667,0.8,No
0.28028,CLG0038,0.471698,0.885542,0.807958,0,No,0.3,0.888889,1,Yes
0.281281,CLG0006,0.54717,0.084337,0.205882,1,Yes,0.1,1,0,No
0.282282,CLG0058,0.679245,0.443775,0.435986,0.222222,Yes,0.5,0.555556,0.2,No
0.283283,CLG0014,0.283019,0.851406,0.813149,1,No,0.5,0.333333,0.6,No
0.284284,CLG0072,0.754717,0.616466,0.629758,0.888889,No,0.5,0.444444,0.8,Yes
0.285285,CLG0094,0.179245,0.291165,0.297578,0,Yes,0,1,1,No
0.286286,CLG0059,0.433962,0.419679,0.397924,0.222222,No,0.5,0.111111,0.2,No
0.287287,CLG0065,0.537736,0.706827,0.678201,0.444444,Yes,0.1,0.222222,0.6,No
0.288288,CLG0089,0.5,0.975904,0.863322,0.222222,No,0.9,0.444444,0,No
0.289289,CLG0013,0.367925,0.895582,0.806228,0.333333,No,0.4,0.222222,?,No
0.29029,CLG0027,0.424528,0.341365,0.290657,0.333333,No,?,0.222222,0.6,No
0.291291,CLG0025,0.386792,1,0.899654,0,Yes,0.9,0.888889,0.8,Yes
0.292292,CLG0056,0.377358,0.002008,0.043253,0.555556,Yes,0,0.333333,0,No
0.293293,CLG0068,0.575472,0.026104,0.17474,0.666667,Yes,0.4,0.333333,0,No
0.294294,CLG0059,0.509434,0.825301,0.799308,0.666667,Yes,0.8,0,1,No
0.295295,CLG0095,0.358491,0.198795,0.294118,0.555556,No,0.2,0.666667,0,No
0.296296,CLG0049,0.584906,0.058233,0.044983,0.666667,No,0.1,1,0.4,Yes
0.297297,CLG0018,0.5,0.236948,0.209343,0.222222,Yes,0.9,0.888889,0.8,No
0.298298,CLG0081,0.575472,0.425703,0.49308,0.444444,Yes,0.1,0.777778,0.2,No
0.299299,CLG0075,0.54717,0.730924,0.723183,0.666667,Yes,0.2,0.111111,0,No
0.3003,CLG0076,0.339623,0.624498,0.557093,1,No,0,0.555556,0.8,No
0.301301,CLG0003,0.377358,0.236948,0.259516,0.444444,Yes,0.1,1,0.4,No
0.302302,CLG0079,?,0.504016,0.513841,1,Yes,0.5,1,0.4,Yes
0.303303,CLG0057,0.54717,0.927711,0.930796,0.111111,Yes,0.7,0.444444,1,No
0.304304,CLG0006,0.45283,0.817269,0.700692,0.555556,No,0.3,0.777778,0,No
0.305305,CLG0069,0.471698,0.323293,0.368512,0.666667,Yes,0.1,0,0.8,No
0.306306,CLG0031,0.641509,0.983936,0.958478,0.111111,No,0.4,0.888889,0.4,Yes
0.307307,CLG0008,0.377358,0.708835,0.766436,1,No,0.2,0.888889,0,No
0.308308,CLG0010,0.537736,0.060241,0.178201,0.777778,Yes,0.4,0.666667,1,No
0.309309,CLG0003,0.424528,0.034137,0.064014,0.444444,Yes,0.2,0.777778,0.6,No
0.31031,CLG0012,0.424528,0.166667,0.252595,0.777778,No,1,0.888889,0.6,No
0.311311,CLG0092,0.613208,0.728916,0.745675,0.222222,No,0.3,0.444444,0.6,Yes
0.312312,CLG0076,0.575472,0.182731,0.269896,0.111111,Yes,0.4,0.111111,0.2,No
0.313313,CLG0094,0.575472,0.512048,0.569204,0.666667,Yes,0.6,0,0.8,No
0.314314,CLG0019,0.641509,0.092369,0.221453,0.444444,Yes,0.1,0.444444,1,No
0.315315,CLG0021,0.462264,0.921687,0.797578,0.444444,No,0.5,0.777778,0.6,Yes
0.316316,CLG0081,0.556604,0.343373,0.299308,0.777778,No,0.5,1,0.4,No
0.317317,CLG0014,0.415094,0.909639,0.908304,0.888889,No,0.5,0.333333,0.2,No
0.318318,CLG0075,0.5,0.945783,0.844291,0.777778,Yes,0.6,0.333333,0.6,No
0.319319,CLG0029,0.443396,0.004016,0,1,No,1,0.333333,0,No
0.32032,CLG0007,0.471698,0.463855,0.455017,0.111111,No,0.2,0.777778,0.4,No
0.321321,CLG0049,0.537736,0.022088,0.147059,1,Yes,0.4,0.666667,0.2,No
0.322322,CLG0065,0.339623,0.909639,0.792388,0.666667,No,0.8,0,0.2,No
0.323323,CLG0007,0.754717,0.518072,0.548443,0.444444,No,0.8,1,0.4,Yes
0.324324,CLG0014,0.311321,0.072289,0.048443,0.666667,Yes,0.6,0.555556,0.6,No
0.325325,CLG0016,0.283019,0.108434,0.098616,0.222222,Yes,0.8,0.333333,1,No
0.326326,CLG0099,0.622642,0.383534,0.377163,0.333333,Yes,0.2,0.111111,1,No
0.327327,CLG0016,0.566038,0.941767,0.811419,?,No,0.6,0.222222,0,No
0.328328,CLG0085,0.54717,0.692771,0.730104,0.111111,No,0,0.333333,0,No
0.329329,CLG0013,0.54717,0.869478,0.884083,0.111111,No,0.6,1,1,Yes
0.33033,CLG0082,0.45283,0.365462,0.432526,0,Yes,0.2,0.666667,1,No
0.331331,CLG0029,0.330189,?,0.064014,0,No,0.2,0,0,No
0.332332,CLG0085,0.471698,0.975904,0.916955,0,?,0.6,0,0.2,No
0.333333,CLG0073,0.358491,0.016064,0.031142,0.555556,Yes,0.7,0.222222,0.6,No
0.334334,CLG0095,0.59434,0.949799,0.852941,0.444444,Yes,0.3,0.111111,1,Yes
0.335335,CLG0061,0.433962,0.36747,0.392734,1,Yes,0,0.222222,1,No
0.336336,CLG0037,?,0.008032,0.121107,0.777778,No,0.4,0.222222,0.4,No
0.337337,CLG0017,0.415094,0.690763,0.596886,0.444444,Yes,0.9,0,0.8,No
0.338338,CLG0031,0.518868,0.981928,0.884083,0,Yes,0.3,0.555556,0,No
0.339339,CLG0059,0.377358,0.967871,0.980969,0.777778,No,?,0.777778,0.4,Yes
0.34034,CLG0088,0.339623,0.158635,?,0.555556,No,0.2,0.444444,1,No
0.341341,CLG0047,0.490566,0.180723,0.304498,0.777778,Yes,0.3,0,1,No
0.342342,CLG0006,0.490566,0.566265,0.645329,0.111111,Yes,0.9,1,0.4,Yes
0.343343,CLG0032,0.386792,0.638554,0.628028,1,Yes,0.2,0.666667,1,No
0.344344,CLG0031,0.386792,0.740964,0.67474,0.777778,No,0.2,1,0,No
0.345345,CLG0018,0.490566,0.180723,0.278547,0.555556,No,0.6,0.888889,0.8,No
0.346346,CLG0009,0.254717,0.961847,0.842561,0,No,0.4,0.666667,0.2,No
0.347347,CLG0003,0.254717,0.638554,0.579585,0,Yes,0.4,?,0.2,No
0.348348,CLG0071,0.358491,?,0.852941,1,No,0.3,1,0.6,Yes
0.349349,CLG0026,0.424528,0.540161,0.525952,0.444444,No,0.9,0.888889,1,No
0.35035,CLG0013,0.5,0.413655,0.377163,0.666667,Yes,0.7,0.111111,0.2,No
0.351351,CLG0034,0.669811,0.97992,0.942907,0.333333,No,0,0.777778,0.4,Yes
0.352352,CLG0043,0.575472,0.582329,0.614187,1,No,1,0.666667,0.2,No
0.353353,CLG0093,0.433962,0.86747,0.756055,0.444444,No,0.8,0.666667,0.6,No
0.354354,CLG0033,0.45283,0.955823,0.858131,1,No,1,0.111111,0.4,?
0.355355,CLG0069,0.311321,0.676707,0.607266,0.222222,No,0.8,0,0.4,No
0.356356,CLG0036,0.45283,0.548193,0.524221,0.111111,No,1,0.333333,0.8,No
0.357357,CLG0079,0.415094,0.002008,0.119377,?,No,0.4,0.666667,1,No
0.358358,CLG0074,0.5,0.038153,0.141869,0.444444,No,0,0.555556,0,No
0.359359,CLG0068,0.339623,0.198795,0.271626,0.333333,Yes,0.1,1,0,No
0.36036,CLG0047,0.528302,0.184739,0.147059,0.111111,No,0.1,0.111111,0,No
0.361361,CLG0061,0.669811,0.253012,0.228374,0.444444,Yes,0.5,0.666667,0.6,No
0.362362,CLG0045,0.443396,0.303213,0.285467,1,Yes,0.9,1,0.2,No
0.363363,CLG0096,0.518868,0.359438,0.342561,0.888889,No,0.8,0.888889,0,No
0.364364,CLG0088,0.556604,0.419679,0.373702,0.777778,No,0.2,0.111111,0.2,No
0.365365,CLG0084,0.396226,0.096386,0.140138,0.888889,No,0.7,1,0,No
0.366366,CLG0048,0.490566,0.040161,0.034602,0.888889,No,0.1,0.444444,0.8,No
0.367367,CLG0041,0.462264,0.674699,0.697232,0.777778,No,0.4,0.111111,0.2,No
0.368368,CLG0038,0.471698,0.538153,0.586505,0.888889,No,0.3,0,0.6,No
0.369369,CLG0068,0.349057,0.443775,0.467128,0.333333,No,0.4,0.666667,1,No
0.37037,CLG0075,0.462264,0.634538,0.548443,0.777778,Yes,0.3,0.111111,1,No
0.371371,CLG0011,0.528302,0.829317,0.854671,0.111111,No,0,0.555556,0.6,No
0.372372,CLG0016,0.660377,0.427711,0.522491,0.888889,No,0,0.666667,0.2,?
0.373373,CLG0065,?,0.64257,0.574394,0.888889,No,0.5,0,1,No
0.374374,CLG0097,0.764151,0.955823,0.930796,0.222222,No,0.7,0.888889,0.6,Yes
0.375375,CLG0071,0.349057,0.841365,0.856401,0.555556,No,0.6,0.555556,0.4,No
0.376376,CLG0067,0.584906,0.425703,0.446367,0.666667,Yes,0.3,0.111111,0.6,No
0.377377,CLG0071,0.481132,0.644578,0.596886,0.222222,Yes,0.4,?,0.8,No
0.378378,CLG0001,0.764151,0.176707,0.221453,0.444444,No,0.7,0,0.8,No
0.379379,CLG0097,0.339623,0.560241,0.557093,0,No,0.5,0.111111,0.2,No
0.38038,CLG0071,0.339623,0.983936,0.903114,0.222222,Yes,0.7,0.888889,0.6,Yes
0.381381,CLG0004,0.377358,0.518072,0.593426,0.777778,No,0.5,0.111111,0.2,No
0.382382,CLG0082,0.160377,0.929719,0.915225,0.222222,No,0.7,0,0,No
0.383383,CLG0037,0.386792,0.407631,0.378893,0.777778,Yes,0.3,0.333333,0.4,No
0.384384,CLG0014,0.349057,1,0.949827,0.888889,No,0.9,0.888889,0.2,No
0.385385,CLG0079,0.481132,0.580321,0.605536,0.555556,Yes,0.1,0.777778,0.2,No
0.386386,CLG0025,0.509434,0.040161,0.044983,0.666667,No,0.2,0.666667,0.2,No
0.387387,CLG0082,0.726415,0.586345,0.553633,0.555556,No,0.4,0.777778,1,Yes
0.388388,CLG0004,0.59434,0.273092,0.378893,0.777778,No,0.3,0.111111,0.2,No
0.389389,CLG0066,0.377358,0.03012,0.110727,0.666667,No,0.4,0.444444,1,No
0.39039,CLG0043,0.330189,0.821285,0.731834,1,No,0,0.666667,0.8,No
0.391391,CLG0026,0.528302,0.2751,0.243945,0,No,?,0,0.4,No
0.392392,CLG0084,0.273585,0.797189,0.762976,0.222222,Yes,0.1,0.555556,0,No
0.393393,CLG0015,0.716981,0.287149,0.32872,0.222222,No,1,0.666667,0.4,No
0.394394,CLG0006,0.622642,0.192771,0.209343,0.222222,No,0.1,0.777778,0.2,No
0.395395,CLG0037,0.386792,0.975904,0.935986,0.333333,Yes,0.7,0.444444,0.8,No
0.396396,CLG0043,0.216981,0.361446,0.309689,0,No,0.9,0.777778,0,No
0.397397,CLG0042,0.650943,0.60241,0.531142,0.111111,Yes,0.3,1,1,Yes
0.398398,CLG0013,0.443396,0.610442,0.607266,0.444444,No,0.5,0,0.2,No
0.399399,CLG0016,0.632075,0.560241,0.479239,0.555556,Yes,0.1,0.333333,1,No
0.4004,CLG0042,0.235849,0.915663,0.927336,0.888889,Yes,0,0.555556,0.2,No
0.401401,CLG0038,0.377358,0.674699,0.591696,0.111111,No,0.6,0.333333,0.6,No
0.402402,CLG0066,0.462264,0.403614,0.449827,0.888889,No,0.3,0.444444,0.4,No
0.403403,CLG0065,0.462264,0.863454,0.797578,0.666667,No,0.3,0.111111,0.4,No
0.404404,CLG0005,0.396226,0.180723,0.211073,0.888889,No,0.1,0.666667,0.4,No
0.405405,CLG0030,0.54717,0.544177,0.586505,0.333333,Yes,0.8,0.888889,0.6,No
0.406406,CLG0095,0.301887,0.951807,0.892734,0.666667,Yes,0.1,0.666667,0.8,No
0.407407,CLG0043,0.433962,0.626506,0.652249,0,Yes,0.4,0,0.8,No
0.408408,CLG0032,0.471698,0.817269,0.778547,0.777778,No,0.5,0.111111,0.8,No
0.409409,CLG0067,0.528302,0.654618,0.652249,0.666667,Yes,0.2,0.777778,1,Yes
0.41041,CLG0067,0.556604,0.841365,0.842561,0.666667,No,1,0,0,No
0.411411,CLG0042,0.301887,0.945783,0.906574,0.111111,Yes,0.2,0.111111,0.6,No
0.412412,CLG0005,0.235849,0.271084,0.32699,1,Yes,0.5,0.444444,0.6,No
0.413413,CLG0099,0.641509,0.168675,0.268166,0.888889,?,0.4,0.555556,0.8,No
0.414414,CLG0086,0.5,0.483936,0.567474,0.777778,No,0.4,0,0.8,No
0.415415,CLG0096,0.349057,0.702811,0.657439,0,Yes,0.4,0,0.8,No
0.416416,CLG0059,0.679245,0.226908,0.282007,0,Yes,0.8,0.111111,0.6,No
0.417417,CLG0023,0.471698,0.002008,0.00346,0.444444,No,0.7,?,0.8,No
0.418418,CLG0008,0.622642,0.341365,0.342561,0.111111,Yes,0.3,?,0.4,Yes
0.419419,CLG0068,0.471698,0.96988,0.892734,0,No,0.5,0.222222,0.8,No
0.42042,CLG0070,0.745283,0.694779,0.730104,1,No,0.4,0.777778,0.4,Yes
0.421421,CLG0091,0.707547,0.401606,0.420415,0.777778,Yes,1,0.555556,0.2,No
0.422422,CLG0019,0.424528,0.190763,?,0.333333,No,0.5,1,0.2,No
0.423423,CLG0044,0.59434,0.355422,0.295848,0.111111,No,1,0.444444,0.6,No
0.424424,CLG0093,0.54717,0.168675,0.211073,0.444444,No,0.7,0.888889,0,No
0.425425,CLG0038,0.650943,0.104418,0.231834,?,Yes,0.5,0.777778,1,Yes
0.426426,CLG0044,0.320755,0.907631,0.806228,0.777778,Yes,0.5,0.222222,0.2,No
0.427427,CLG0006,0.556604,1,0.852941,0.666667,No,0.1,0.666667,0.6,No
0.428428,CLG0003,0.603774,0.162651,0.200692,0.666667,Yes,0.6,0.333333,0.6,No
0.429429,CLG0096,0.207547,0.052209,0.152249,0,No,0.2,0.777778,0.4,No
0.43043,CLG0080,0.292453,?,0.347751,0.222222,No,0.6,0.666667,0.4,No
0.431431,CLG0033,0.169811,0.461847,0.463668,0.222222,Yes,0.4,0.222222,0.8,No
0.432432,CLG0066,0.415094,0.202811,?,0.666667,No,0.3,0.666667,1,No
0.433433,CLG0058,0.556604,0.301205,0.288927,0.111111,Yes,0.9,0.555556,0.2,No
0.434434,CLG0026,0.669811,0.198795,0.287197,1,Yes,0,0.555556,0.4,No
0.435435,CLG0099,0.471698,0.7751,0.679931,0.666667,No,0.7,1,0,No
0.436436,CLG0028,0.688679,0.712851,0.66955,0.888889,Yes,0.1,0.222222,1,Yes
0.437437,CLG0043,0.264151,0.634538,0.647059,0,No,0.9,0.333333,0.6,No
0.438438,CLG0075,0.216981,0.38755,0.463668,0.111111,No,0.7,0.333333,1,No
0.439439,CLG0088,0.45283,0.911647,0.908304,0.555556,No,0.6,0.555556,0.8,No
0.44044,CLG0016,0.509434,0.971888,0.948097,0.111111,No,0.2,0.888889,0.4,Yes
0.441441,CLG0089,0.45283,0.172691,0.197232,0.111111,Yes,1,0.444444,0.4,No
0.442442,CLG0023,0.160377,0.222892,0.198962,0.444444,No,0.6,0.777778,0.4,No
0.443443,CLG0059,0.443396,0.526104,0.477509,0.666667,No,0,0.444444,1,No
0.444444,CLG0035,0.273585,0.090361,0.212803,0.333333,Yes,0.4,0.555556,0.2,No
0.445445,CLG0089,0.556604,0.435743,0.510381,0.555556,Yes,0.1,0.555556,1,No
0.446446,CLG0041,0.509434,0.582329,0.652249,0.222222,No,?,0.333333,0.4,No
0.447447,CLG0097,0.320755,0.522088,0.449827,0.333333,Yes,0.2,1,1,No
0.448448,CLG0022,0.386792,0.329317,0.363322,0.333333,No,0.6,1,0.6,No
0.449449,CLG0074,0.311321,0.542169,0.565744,0.333333,No,0.1,0.444444,0.4,No
0.45045,CLG0001,0.45283,?,0.935986,0,Yes,0.3,0.333333,1,No
0.451451,CLG0046,0.59434,0.204819,0.273356,0.333333,No,0.3,0.111111,0,No
0.452452,CLG0022,0.320755,0.654618,0.683391,0.333333,Yes,0,0.111111,0.4,No
0.453453,CLG0032,0.528302,0.042169,0.084775,0.555556,Yes,0.6,0.777778,0.8,No
0.454454,CLG0087,0.386792,0.064257,0.072664,0.888889,No,0.3,0.333333,0.8,No
0.455455,CLG0030,0.349057,0.552209,0.49654,1,Yes,0,0.888889,0,No
0.456456,CLG0087,0.443396,0.10241,0.076125,0.555556,No,0.2,0.555556,0.8,No
0.457457,CLG0043,0.311321,0.02008,0.064014,0.555556,No,0.7,0.444444,0.2,No
0.458458,CLG0012,0.377358,0.170683,0.148789,0.666667,No,0.3,0.666667,0.6,No
0.459459,CLG0083,0.292453,0.564257,0.527682,0.666667,Yes,0,0.555556,0.6,No
0.46046,CLG0071,0.735849,0.704819,0.702422,0,No,0.6,0.333333,0.2,No
0.461461,CLG0027,0.462264,0.200803,0.313149,0.777778,No,0.7,1,0.8,No
0.462462,CLG0026,0.358491,0.668675,0.707612,0,No,0.4,0.888889,0,No
0.463463,CLG0018,0.490566,0.180723,0.185121,0.888889,Yes,0.8,0.555556,0,No
0.464464,CLG0092,0.443396,0.614458,0.538062,0.333333,No,0.6,0.222222,0.6,No
0.465465,CLG0075,0.424528,0.411647,0.373702,0.888889,No,0.3,0.333333,1,No
0.466466,CLG0066,0.54717,0.654618,0.717993,0.777778,No,0.8,0.333333,0,No
0.467467,CLG0081,0.566038,0.997992,0.941176,0.888889,Yes,0.5,0.777778,0.2,Yes
0.468468,CLG0061,0.386792,0.939759,0.82699,0.555556,Yes,1,0.444444,0.6,No
0.469469,CLG0046,0.377358,0.002008,0.133218,0.888889,Yes,0.7,0.777778,0.4,No
0.47047,CLG0029,0.415094,0.88755,0.820069,0.333333,Yes,0.1,0.777778,0.2,No
0.471471,CLG0032,0.132075,0.064257,0.197232,0.222222,Yes,0.4,0.555556,0.2,No
0.472472,CLG0015,0.245283,0.955823,0.854671,0.222222,No,0.2,0.444444,0,No
0.473473,CLG0060,0.650943,0.281124,0.295848,0.777778,No,0.4,0.111111,1,No
0.474474,CLG0082,0.688679,0.381526,0.401384,0.111111,Yes,0.7,0,0,No
0.475475,CLG0028,0.424528,0.090361,0.217993,0.555556,No,0.5,0.666667,0,No
0.476476,CLG0027,0.537736,0.110442,0.231834,0.888889,Yes,0,1,0.4,No
0.477477,CLG0041,0.5,0.726908,0.711073,0.888889,No,0.6,1,0.2,No
0.478478,CLG0047,0.896226,0.945783,0.8391,0.777778,Yes,0.9,0.666667,0.8,Yes
0.479479,CLG0033,0.613208,0.610442,0.581315,0.777778,Yes,0,0.111111,0.6,No
0.48048,CLG0044,0.443396,0.716867,0.773356,0,Yes,0,0.222222,0,No
0.481481,CLG0050,0.320755,0.763052,0.749135,0.666667,No,0.3,0.777778,0,No
0.482482,CLG0010,0.226415,0.261044,0.346021,0,No,0.8,0.333333,0.2,No
0.483483,CLG0024,0.490566,0.044177,0.102076,0.888889,No,0.7,0.444444,0.4,No
0.484484,CLG0034,0.349057,0,0.077855,0.222222,No,0.9,0.666667,0,No
0.485485,CLG0091,0.254717,0.349398,0.361592,0,No,0.2,0.777778,0.4,No
0.486486,CLG0020,0.367925,0.240964,0.314879,0.777778,No,0.5,0,0.4,No
0.487487,CLG0025,0.301887,0.060241,0.185121,0.666667,No,0,0.666667,0.8,No
0.488488,CLG0055,0.698113,0.178715,0.228374,0.111111,Yes,0.9,0.222222,0.4,No
0.489489,CLG0090,0.584906,?,0.17474,0.666667,Yes,0,0.444444,0.8,No
0.49049,CLG0043,0.45283,0.915663,0.83391,0.444444,No,0.5,0,0.6,No
0.491491,CLG0053,0.669811,0.138554,0.136678,0.666667,No,0.4,0.222222,0.4,No
0.492492,CLG0085,0.471698,0.538153,0.612457,1,Yes,0.5,0.444444,0.6,No
0.493493,CLG0050,0.339623,0.594378,0.553633,0.666667,No,0.8,0,0.4,No
0.494494,CLG0055,0.669811,0.544177,0.593426,0.111111,Yes,0.4,0.111111,0.8,Yes
0.495495,CLG0013,0.537736,0.098394,0.195502,0.111111,No,0.1,0.222222,0.8,No
0.496496,CLG0049,0.311321,0.317269,0.396194,0.666667,Yes,0,0.777778,0.6,No
0.497497,CLG0097,0.433962,0.050201,0.192042,0.222222,Yes,1,0.444444,0.2,No
0.498498,CLG0010,0.330189,0.395582,0.434256,0.333333,No,0.1,0.444444,0.2,No
0.499499,CLG0092,0.264151,0.186747,0.302768,0.666667,No,0.7,0.222222,0.2,No
0.500501,CLG0097,0.584906,0.562249,0.5,0.111111,No,0,0.888889,0.4,Yes
0.501502,CLG0011,0.726415,0.692771,0.692042,0.111111,No,0.5,0.888889,0.2,Yes
0.502503,CLG0078,0.264151,0.532129,0.577855,0.888889,No,0.4,0.111111,0.6,No
0.503504,CLG0084,0.537736,0.433735,0.406574,0,No,0.9,0.777778,0.2,No
0.504505,CLG0100,0.367925,0.38755,0.448097,0.222222,Yes,1,0,0.6,No
0.505506,CLG0020,0.386792,0.843373,0.847751,1,Yes,0.8,0.444444,0.6,No
0.506507,CLG0072,0.377358,0.218876,0.318339,0.333333,No,0.3,0.666667,1,No
0.507508,CLG0079,0.339623,0.73494,0.67301,0.444444,No,0.4,0.777778,0.4,Yes
0.508509,CLG0097,0.462264,0.759036,0.757785,0.222222,No,0.4,0.777778,1,Yes
0.50951,CLG0083,0.339623,0.419679,0.399654,0.888889,Yes,1,0.555556,0.8,No
0.510511,CLG0048,0.5,0.297189,0.370242,0.444444,No,0.1,0.666667,0.4,No
0.511512,CLG0076,0.45283,0.46988,0.470588,0.666667,No,1,0.333333,0.4,No
0.512513,CLG0017,0.424528,0.092369,0.16955,0.666667,Yes,0.1,1,0,No
0.513514,CLG0033,0.330189,0.044177,0.096886,0.888889,No,0.8,0.666667,0.2,No
0.514515,CLG0020,0.377358,0.110442,0.108997,0.111111,No,0.2,0.666667,0.2,No
0.515516,CLG0046,0.566038,0.186747,0.178201,0.222222,No,0.5,0.888889,0.6,Yes
0.516517,CLG0031,0.528302,0.504016,0.434256,0.333333,Yes,0.3,0.111111,0.8,No
0.517518,CLG0051,0.320755,0.851406,0.82699,0.777778,No,0.3,0.777778,1,Yes
0.518519,CLG0083,0.471698,0.23494,0.33564,0,Yes,0.4,0.888889,0.2,No
0.51952,CLG0019,0.566038,0.937751,0.797578,0.888889,No,0.4,0.222222,0.2,No
0.520521,CLG0062,0.216981,0.955823,0.821799,0.444444,Yes,0.6,0.777778,0.8,Yes
0.521522,CLG0044,0.537736,0.959839,0.892734,0.333333,No,0.6,0,0.2,No
0.522523,CLG0077,?,0.839357,0.83737,0.777778,No,0,1,0,No
0.523524,CLG0038,0.537736,0.363454,0.32699,0.888889,No,0.5,0.444444,0.2,No
0.524525,CLG0049,0.349057,0.070281,0.093426,0.222222,No,0.3,0,0,No
0.525526,CLG0065,0.198113,0.568273,0.515571,0.333333,Yes,0.1,0,0.4,No
0.526527,CLG0011,0.226415,0.558233,0.536332,0,Yes,0.5,0.555556,0.4,No
0.527528,CLG0027,0.462264,0.851406,0.757785,0.222222,No,0.6,0.444444,0,No
0.528529,CLG0058,0.490566,0.997992,0.906574,1,?,0.1,0.444444,1,No
0.52953,CLG0064,0.330189,0.508032,0.550173,0.444444,No,0.1,0.111111,1,No
0.530531,CLG0065,0.54717,0.345382,0.389273,0.777778,No,0.9,1,0.6,No
0.531532,CLG0015,0.226415,0.184739,0.15917,0,Yes,1,0.888889,0,No
0.532533,CLG0082,0.45283,0.002008,0.098616,0,Yes,0.6,0.444444,0.6,No
0.533534,CLG0089,0.283019,0.51004,0.508651,0.222222,Yes,0.8,0.222222,0.8,No
0.534535,CLG0001,0.367925,0.556225,0.626298,0.888889,No,0.2,0.666667,0.8,No
0.535536,CLG0019,0.462264,0.825301,0.747405,0.888889,No,0.2,0.555556,0,No
0.536537,CLG0056,0.339623,0.504016,0.546713,0,No,0.7,0.555556,0.6,No
0.537538,CLG0064,0.40566,0.917671,0.903114,0.333333,No,0.1,0.444444,0.4,No
0.538539,CLG0034,0.603774,0.628514,0.565744,0.777778,No,0.8,?,0,No
0.53954,CLG0064,0.377358,0.841365,0.866782,0.111111,No,0.6,0.555556,0,No
0.540541,CLG0010,0.575472,0.146586,0.197232,0.333333,Yes,0.7,0.666667,0.6,No
0.541542,CLG0076,0.301887,0.85743,0.842561,0.666667,No,0.8,0.777778,0.8,Yes
0.542543,CLG0060,0.528302,0.676707,0.595156,0.666667,No,0.2,0.111111,1,No
0.543544,CLG0039,0.660377,0.168675,0.176471,0.444444,Yes,0.5,0.333333,0.4,No
0.544545,CLG0066,0.103774,0.188755,0.250865,0.666667,No,0.7,0.666667,0.6,No
0.545546,CLG0032,0.349057,0.927711,0.84083,0.555556,No,0,0.222222,0.6,No
0.546547,CLG0051,0.537736,0.03012,0.098616,0.111111,No,0.5,0.444444,0.4,No
0.547548,CLG0026,0.424528,0.461847,0.448097,0.888889,Yes,0.2,1,1,No
0.548549,CLG0057,0.509434,0.313253,0.366782,0.444444,No,0.7,0.666667,1,No
0.54955,CLG0084,0.367925,0.666667,0.645329,0.111111,No,0.8,0.888889,0,No
0.550551,CLG0060,0.471698,0.841365,0.711073,0.555556,No,0.4,0.555556,0,No
0.551552,CLG0055,0.433962,0.359438,0.408304,1,Yes,0.1,0.111111,0.2,No
0.552553,CLG0006,0.622642,0.425703,0.425606,0.444444,Yes,0.6,0.888889,0.4,Yes
0.553554,CLG0007,0.490566,0.983936,0.892734,0.111111,No,0.5,0.555556,0.6,No
0.554555,CLG0066,0.509434,0.785141,0.678201,1,No,0.5,1,0.2,No
0.555556,CLG0081,0.396226,0.899598,0.799308,1,No,0,0.111111,0.2,No
0.556557,CLG0026,0.386792,0.437751,0.401384,0.666667,No,0,0,0.2,No
0.557558,CLG0095,0.396226,0.232932,0.349481,1,No,0.5,0.333333,0,No
0.558559,CLG0098,?,0.411647,0.415225,0.111111,Yes,?,0.111111,0.8,No
0.55956,CLG0082,0.396226,0.716867,0.610727,0.666667,Yes,0.3,0.666667,0.2,No
0.560561,CLG0078,0.5,0.108434,0.103806,0.555556,Yes,0.7,0.666667,0.6,No
0.561562,CLG0005,0.754717,0.269076,0.231834,?,Yes,0.8,0.222222,1,No
0.562563,CLG0087,0.584906,0.044177,0.126298,0.333333,No,0.5,1,0,No
0.563564,CLG0001,0.415094,0.431727,0.391003,0.555556,No,0.9,0,1,No
0.564565,CLG0084,0.632075,0.829317,?,0.888889,No,0.7,0.111111,0.8,Yes
0.565566,CLG0002,0.396226,0.022088,0.069204,1,Yes,0.7,0.777778,0.8,No
0.566567,CLG0065,0.169811,0.676707,0.707612,0.555556,Yes,0.1,0.333333,0.2,No
0.567568,CLG0010,0.311321,0.933735,0.846021,0.555556,Yes,0.3,0.222222,0.2,No
0.568569,CLG0050,0.188679,0.23494,0.268166,0,No,0,1,0,No
0.56957,CLG0051,0.40566,0.694779,0.709343,0.444444,Yes,0,0.666667,0.2,No
0.570571,CLG0069,0.462264,0.977912,0.903114,0,No,0.5,1,0,No
0.571572,CLG0041,0.698113,0.963855,0.953287,0.888889,No,0.6,0.333333,0.8,Yes
0.572573,CLG0058,0.5,0.232932,0.301038,1,No,0.4,0.111111,0.6,No
0.573574,CLG0077,0.424528,0.098394,0.141869,0.333333,Yes,0.7,0.222222,0.6,No
0.574575,CLG0068,0.575472,0.146586,0.198962,0.111111,No,0.8,0.333333,0.4,No
0.575576,CLG0024,0.141509,0.702811,0.759516,0.888889,No,0.3,0,1,No
0.576577,CLG0091,0.490566,0.726908,0.726644,0.555556,Yes,0,0.777778,0.4,Yes
0.577578,CLG0056,0.566038,0.674699,0.723183,1,Yes,0.5,0.777778,0.4,Yes
0.578579,CLG0100,0.245283,0.335341,0.306228,0.222222,No,0,0.444444,0.6,No
0.57958,CLG0036,0.622642,0.168675,0.214533,0.111111,Yes,0.1,0.555556,0.2,No
0.580581,CLG0002,0.509434,0.580321,0.643599,0.555556,Yes,1,0.333333,0,No
0.581582,CLG0096,0.396226,0.483936,0.458478,1,Yes,0.3,0.222222,0.6,No
0.582583,CLG0056,0.54717,0.728916,0.782007,0.555556,Yes,0.3,0.222222,0.4,No
0.583584,CLG0081,0.783019,0.441767,0.384083,0.888889,Yes,0.5,0.333333,0.4,No
0.584585,CLG0012,0.481132,0.337349,0.432526,0.444444,No,0.7,0.555556,1,No
0.585586,CLG0012,0.490566,0.293173,0.316609,0.888889,No,0.2,0.111111,0.2,No
0.586587,CLG0085,0.396226,0.210843,0.179931,0.444444,No,0.5,0.555556,0.4,No
0.587588,CLG0072,0.339623,0.26506,0.366782,0.111111,Yes,0.2,0.777778,0.4,No
0.588589,CLG0022,0.575472,0.092369,0.108997,0,Yes,0.1,0.888889,0,No
0.58959,CLG0074,0.339623,0.345382,0.287197,0.888889,Yes,0.3,0.333333,0.2,No
0.590591,CLG0084,0.471698,0.034137,0.039792,1,No,0.3,0.444444,0.8,No
0.591592,CLG0062,0.386792,0.184739,0.259516,0.666667,Yes,0.1,0.777778,0.8,No
0.592593,CLG0064,0.528302,0.746988,0.799308,0.222222,No,1,1,0.4,Yes
0.593594,CLG0028,0.509434,0.325301,0.285467,0.555556,Yes,0.2,0.111111,0.4,No
0.594595,CLG0089,0.603774,0.668675,0.641869,1,No,0.8,1,0,Yes
0.595596,CLG0028,0.386792,0.716867,0.634948,0.333333,No,0.9,0.111111,0.8,No
0.596597,CLG0004,0.415094,0.582329,0.617647,0.888889,Yes,0.8,0.888889,0.2,No
0.597598,CLG0045,0.320755,0.959839,0.83391,0.111111,No,0.9,0.555556,0.2,No
0.598599,CLG0090,0.396226,0.02008,0.044983,0.333333,No,0.6,1,0.6,No
0.5996,CLG0013,0.509434,0.738956,0.657439,0,No,0.1,0.888889,1,Yes
0.600601,CLG0083,0.566038,0.959839,0.908304,0.666667,No,0.4,1,0.6,Yes
0.601602,CLG0098,0.330189,0.863454,0.880623,0.333333,Yes,0.7,0.666667,0.2,No
0.602603,CLG0080,0.584906,0.166667,0.217993,0.444444,No,0,0.444444,0.6,No
0.603604,CLG0004,0.650943,0.325301,0.276817,0,Yes,0,0.888889,1,Yes
0.604605,CLG0061,0.518868,0.170683,0.230104,0.111111,Yes,1,0.888889,1,No
0.605606,CLG0084,0.726415,0.60241,0.643599,0.333333,Yes,1,?,0,No
0.606607,CLG0026,0.349057,0.712851,0.622837,0.111111,Yes,0.5,0.777778,0.4,Yes
0.607608,CLG0094,0.283019,0.317269,0.271626,0,Yes,0.6,0.777778,0.2,No
0.608609,CLG0006,0.207547,0.540161,0.484429,1,No,0.6,0.111111,0.8,No
0.60961,CLG0077,0.669811,0.690763,0.711073,0,No,?,1,0.8,Yes
0.610611,CLG0056,0.54717,0.421687,0.451557,0.555556,No,0.9,0.666667,?,No
0.611612,CLG0100,0.45283,0.855422,0.816609,0.111111,No,0.3,0,0.6,No
0.612613,CLG0081,0.5,0.773092,0.695502,0.222222,No,0.8,0.444444,0.6,No
0.613614,CLG0027,0.301887,0.062249,0.096886,0.444444,Yes,1,0.444444,0.2,No
0.614615,CLG0035,0.801887,0.62249,0.690311,0.222222,Yes,0.9,1,0.2,Yes
0.615616,CLG0097,0.471698,0.23494,0.230104,0.555556,No,0.3,0.444444,0.2,No
0.616617,CLG0082,?,0.558233,0.622837,0.666667,No,0.4,0.111111,0,No
0.617618,CLG0058,0.556604,0.957831,0.911765,?,Yes,0.5,0.222222,0.8,No
0.618619,CLG0084,0.528302,0.881526,0.766436,0.555556,Yes,0.6,0.555556,0,No
0.61962,CLG0063,0.490566,0.403614,0.415225,0.111111,Yes,0.4,0,1,No
0.620621,CLG0033,0.349057,0.291165,0.401384,0.888889,No,0.6,0.555556,0,No
0.621622,CLG0095,0.528302,0.232932,0.259516,0.111111,?,0.1,0.555556,0.4,No
0.622623,CLG0083,0.726415,0.532129,0.593426,0.555556,No,0.6,0.666667,0,No
0.623624,CLG0097,0.650943,0.11245,0.128028,0.888889,No,0.4,0.888889,1,Yes
0.624625,CLG0081,0.679245,0.550201,0.558824,0.888889,No,0.9,0.888889,0.8,Yes
0.625626,CLG0033,0.386792,0,0.131488,0.111111,No,0.4,0.333333,0.6,No
0.626627,CLG0100,0.320755,0.323293,0.423875,0.888889,No,1,0.111111,0.8,No
0.627628,CLG0069,0.443396,0.218876,0.259516,0.777778,No,0.5,0.444444,0.2,No
0.628629,CLG0040,0.462264,0.973896,0.935986,0.666667,Yes,0.8,0,1,No
0.62963,CLG0047,0.613208,0.728916,0.614187,0.777778,No,0.3,0.444444,0.2,No
0.630631,CLG0045,0.216981,0.349398,0.33045,1,Yes,0.4,1,0.2,No
0.631632,CLG0027,0.669811,0.090361,0.112457,0.777778,No,0.4,0.222222,0,No
0.632633,CLG0007,0.433962,0.516064,0.446367,0,Yes,0.2,0.666667,1,No
0.633634,CLG0058,0.396226,0.212851,0.217993,0.888889,Yes,0.2,0.666667,0.4,No
0.634635,CLG0014,0.311321,0.536145,0.50346,0.555556,No,0,0.222222,0.6,No
0.635636,CLG0004,0.226415,0.837349,0.875433,0,No,0.3,0.444444,0,No
0.636637,CLG0082,0.575472,0.616466,0.633218,0,Yes,0.8,0.888889,0.2,Yes
0.637638,CLG0034,0.471698,0.634538,0.607266,0.666667,No,0.1,0.333333,0.8,No
0.638639,CLG0080,0.273585,0.542169,0.624567,1,No,0.9,0.111111,0.2,No
0.63964,CLG0091,0.273585,0.929719,0.813149,0.111111,Yes,0.3,0.222222,0.8,No
0.640641,CLG0038,0.40566,0.933735,0.873702,0.555556,Yes,?,0,0.6,No
0.641642,CLG0020,0.698113,0.512048,0.539792,0.444444,No,0.8,0.444444,0.2,No
0.642643,CLG0046,0.424528,0.305221,0.259516,0.444444,Yes,0.7,0.888889,1,No
0.643644,CLG0019,0.245283,0.459839,0.50692,1,No,0.1,0.111111,1,No
0.644645,CLG0001,0.424528,0.184739,0.16263,0.555556,Yes,1,0.222222,0.6,No
0.645646,CLG0023,0.415094,0.636546,0.558824,0.777778,Yes,0.2,0.222222,0.2,No
0.646647,CLG0062,0.075472,0.5,0.444637,0.444444,Yes,0.5,0.666667,0.2,No
0.647648,CLG0073,0.45283,0.10241,0.235294,0.777778,Yes,0.1,1,0.8,No
0.648649,CLG0028,0.424528,0.196787,0.273356,0.444444,No,0.2,?,0.4,No
0.64965,CLG0084,0.556604,0.47992,0.513841,1,No,0,0,1,No
0.650651,CLG0080,0.716981,0.889558,0.849481,0.555556,Yes,0.3,0.222222,0.8,Yes
0.651652,CLG0077,0.613208,0.566265,0.524221,0.777778,Yes,1,0,0,No
0.652653,CLG0033,?,0.682731,0.681661,0.111111,No,0.5,0.888889,0.6,Yes
0.653654,CLG0003,0.301887,0.339357,0.349481,0.666667,Yes,0,0.666667,0.6,No
0.654655,CLG0079,0.820755,0.572289,0.50519,0.222222,No,0,0.444444,0.4,No
0.655656,CLG0016,0.462264,0.447791,0.491349,0.888889,Yes,0.7,0.666667,0.2,No
0.656657,CLG0030,0.462264,0.660643,0.577855,1,Yes,0.6,0.222222,0.6,No
0.657658,CLG0025,0.45283,0.048193,0.060554,0.666667,Yes,0.6,0.222222,0.4,No
0.658659,CLG0078,0.481132,0.493976,0.553633,0.222222,Yes,0.6,0,0,No
0.65966,CLG0001,0.433962,0.295181,0.354671,0.777778,No,0.4,0.444444,0.6,No
0.660661,CLG0033,0.377358,0.325301,0.375433,1,Yes,0.3,0.666667,0,No
0.661662,CLG0037,0.377358,0.961847,0.887543,0.111111,Yes,0.6,0.222222,1,No
0.662663,CLG0029,0.45283,0.180723,0.211073,1,No,1,0.444444,0.8,No
0.663664,CLG0037,0.377358,0.311245,0.373702,0.777778,No,0.2,1,0.6,No
0.664665,CLG0061,0.358491,0.51004,0.553633,0.666667,No,0.8,0,0.6,No
0.665666,CLG0008,0.471698,0.865462,0.820069,0.444444,Yes,0.1,0.666667,0.2,No
0.666667,CLG0001,0.424528,0.415663,0.512111,0.333333,Yes,0,0.777778,0,No
0.667668,CLG0063,0.669811,0.74498,0.794118,1,No,0.7,0.777778,0.8,Yes
0.668669,CLG0088,0.084906,0.85743,0.795848,1,No,0.5,0,0.4,No
0.66967,CLG0065,0.613208,0.309237,0.394464,0,No,0.3,0.333333,0.8,No
0.670671,CLG0046,0.632075,0.391566,0.416955,0.333333,Yes,0.9,0.888889,0.6,Yes
0.671672,CLG0043,0.160377,0.355422,0.380623,0.555556,Yes,0.8,0.111111,1,No
0.672673,CLG0010,0.40566,0.833333,0.712803,0.555556,No,0.4,0,0,No
0.673674,CLG0082,0.40566,0.042169,0.121107,0.111111,No,1,0.555556,0.6,No
0.674675,CLG0085,0.254717,?,0.406574,0.888889,Yes,0,0,0.4,No
0.675676,CLG0010,0.349057,0.680723,0.707612,0,No,0,0.555556,0.4,No
0.676677,CLG0062,0.301887,0.566265,0.610727,0.333333,Yes,0.6,0,0.6,No
0.677678,CLG0086,0.707547,0.435743,0.389273,0.333333,No,0,0.555556,1,No
0.678679,CLG0051,0.59434,0.540161,0.513841,0.111111,No,0.5,0.888889,0.6,Yes
0.67968,CLG0045,0.641509,0.196787,0.195502,0.777778,No,0.6,0.444444,0.6,No
0.680681,CLG0073,0.556604,0.429719,0.411765,0.111111,No,1,0.333333,0,No
0.681682,CLG0073,0.301887,0.502008,0.519031,0.111111,Yes,0.9,0.777778,0.2,No
0.682683,CLG0045,0.386792,0.903614,0.82699,0.111111,Yes,0.4,0.333333,0.4,No
0.683684,CLG0085,0.528302,0.259036,0.306228,0,?,0.2,0.333333,0,No
0.684685,CLG0058,0.283019,0.869478,0.811419,0.444444,Yes,0.2,0.888889,0.4,Yes
0.685686,CLG0095,0.556604,0.644578,0.591696,0.333333,No,0.1,0,0.6,No
0.686687,CLG0066,0.424528,0.018072,0.019031,0.111111,No,1,0.222222,0.4,No
0.687688,CLG0024,0.40566,0.7249,0.764706,0,Yes,0,0.333333,1,No
0.688689,CLG0097,0.556604,0.034137,0.017301,0,No,1,0.777778,1,No
0.68969,CLG0075,0.518868,1,0.847751,0.111111,Yes,0.7,0,1,No
0.690691,CLG0065,0.40566,0.873494,0.882353,0,Yes,0.8,0.222222,0.8,No
0.691692,CLG0055,0.622642,0.297189,0.415225,0.888889,No,0.1,0.111111,0.4,No
0.692693,CLG0051,0.301887,0.257028,0.33391,0.111111,?,0.3,0.555556,1,No
0.693694,CLG0072,0.54717,0.381526,0.318339,0.222222,Yes,0.2,0.888889,0.8,No
0.694695,CLG0073,0.537736,0.355422,0.33218,0.888889,Yes,0.3,1,0,No
0.695696,CLG0021,0.415094,0.371486,0.474048,0.444444,No,?,0.888889,0,No
0.696697,CLG0047,0.5,0.317269,0.399654,0.777778,Yes,0.7,1,1,No
0.697698,CLG0022,0.283019,0.62249,0.621107,0.666667,No,1,0.444444,0.8,No
0.698699,CLG0029,0.584906,0.162651,0.16782,0.555556,No,0.2,0.222222,0.4,No
0.6997,CLG0040,0.433962,0.84739,0.717993,0.111111,Yes,0.2,0.777778,1,Yes
0.700701,CLG0003,0.386792,0.813253,0.690311,0.333333,No,0.5,0.888889,0,No
0.701702,CLG0049,0.603774,0.475904,0.50173,0.888889,Yes,1,0.888889,0.4,Yes
0.702703,CLG0025,0.358491,0.853414,0.724913,0.666667,No,0.2,0,0.2,No
0.703704,CLG0082,0.254717,0.246988,0.370242,0.222222,Yes,0.4,1,1,No
0.704705,CLG0011,0.235849,0.016064,0.031142,0.555556,Yes,0.3,0.444444,0.2,No
0.705706,CLG0094,0.54717,0.620482,0.643599,0.777778,No,1,1,1,Yes
0.706707,CLG0089,0.273585,0.457831,0.408304,0.777778,No,0.3,0.888889,0.8,No
0.707708,CLG0075,0.707547,0.568273,0.569204,0.777778,No,0.1,0.222222,0.8,No
0.708709,CLG0098,0.160377,0.901606,0.776817,0.777778,Yes,0.8,0.666667,0.4,No
0.70971,CLG0088,0.698113,0.971888,0.956747,1,No,0.4,0.888889,0.2,Yes
0.710711,CLG0048,0.490566,0.634538,0.633218,0.555556,Yes,0.4,0.111111,0.2,No
0.711712,CLG0032,0.443396,0.76506,0.6609,1,No,0.6,0.111111,0.8,No
0.712713,CLG0003,0.377358,0.082329,0.204152,0.222222,Yes,0.2,0.444444,0.6,No
0.713714,CLG0045,0.509434,0.158635,0.217993,0.888889,No,0.5,0.777778,0.4,No
0.714715,CLG0089,0.45283,0.73494,0.778547,0.222222,Yes,0,1,0.4,Yes
0.715716,CLG0020,0.613208,0.431727,0.517301,0.333333,Yes,0.4,0.444444,0,No
0.716717,CLG0020,0.471698,0.445783,?,1,No,0.4,0.777778,0.8,No
0.717718,CLG0051,0.481132,0.307229,0.264706,0,No,0.8,0.333333,0,No
0.718719,CLG0081,0.40566,0.608434,0.531142,0.111111,Yes,0.4,0.888889,0.6,No
0.71972,CLG0020,0.45283,0.184739,0.316609,0.555556,No,0.7,0.333333,0,No
0.720721,CLG0082,0.5,0.626506,0.610727,0,Yes,0.2,0.444444,0.6,No
0.721722,CLG0014,0.216981,0.172691,0.176471,0.888889,No,1,0.666667,0,No
0.722723,CLG0098,0.264151,0.062249,0.17301,0.777778,No,0.5,0.888889,0.8,No
0.723724,CLG0080,0.566038,0.329317,0.314879,0.111111,No,0.1,0.444444,0.6,No
0.724725,CLG0032,0.481132,0.230924,0.311419,0.111111,No,0.8,0.666667,0.4,No
0.725726,CLG0072,0.433962,0.889558,0.897924,0.777778,Yes,0.5,0.333333,0.8,No
0.726727,CLG0042,0.462264,0.052209,0.16609,0.777778,No,0.4,0.111111,0.8,No
0.727728,CLG0080,0.509434,0.174699,0.183391,0,No,0.8,0.111111,1,No
0.728729,CLG0039,0.377358,0.548193,0.527682,0.444444,Yes,0,0.444444,0.2,No
0.72973,CLG0038,0.349057,0.481928,0.472318,0.111111,Yes,0.2,0.111111,0.4,No
0.730731,CLG0064,0.481132,0.044177,0.108997,0,No,0.1,0.111111,0,No
0.731732,CLG0004,0.320755,0.006024,0.020761,0.222222,No,0.8,0.111111,0.8,No
0.732733,CLG0099,0.518868,0.98996,0.916955,0.222222,Yes,1,0.333333,0,No
0.733734,CLG0092,0.216981,0.658635,0.641869,1,No,0.5,0.777778,0.8,Yes
0.734735,CLG0063,0.603774,0.365462,0.392734,0.888889,Yes,1,0.666667,0.4,No
0.735736,CLG0061,0.528302,0.46988,0.532872,1,No,0.5,0.444444,0.8,No
0.736737,CLG0078,0.490566,0.26506,0.304498,0,No,0.4,0.666667,0,No
0.737738,CLG0005,0.59434,0.343373,0.321799,0.111111,No,0.3,0.555556,0,No
0.738739,CLG0066,0.688679,0.650602,0.6609,?,Yes,0.3,0.777778,0.4,Yes
0.73974,CLG0045,0.603774,0.883534,0.885813,0.444444,No,0.1,0.777778,0,Yes
0.740741,CLG0050,0.198113,0.182731,0.198962,0.888889,No,0.6,0.666667,0.6,No
0.741742,CLG0088,0.273585,0.841365,0.823529,0.555556,Yes,0.5,0.444444,0.8,No
0.742743,CLG0003,0.367925,0.120482,0.115917,1,No,0.2,0.555556,0.6,No
0.743744,CLG0023,0.462264,0.212851,0.228374,1,No,0.6,1,0.2,No
0.744745,CLG0011,0.528302,0.036145,0.17474,0.222222,No,0.8,0.777778,0.2,No
0.745746,CLG0038,0.358491,0.138554,0.262976,0.777778,No,0.9,0.666667,1,No
0.746747,CLG0056,0.481132,0.919679,0.878893,0.888889,No,0,0.444444,1,No
0.747748,CLG0035,0.349057,0.459839,0.50346,0.111111,No,1,1,0.8,No
0.748749,CLG0065,0.367925,0.076305,0.198962,0.888889,Yes,0.9,0.777778,0,No
0.74975,CLG0006,0.254717,0.961847,0.980969,0.333333,No,0.7,0.333333,0.4,No
0.750751,CLG0070,0.330189,0.879518,0.82872,0.777778,No,0.1,0.555556,0.2,No
0.751752,CLG0040,0.264151,0.75502,0.733564,0.444444,No,0,0.333333,0,No
0.752753,CLG0090,0.320755,0.935743,0.865052,0.555556,No,0.8,0.444444,1,No
0.753754,CLG0035,0.603774,0.218876,0.186851,0.333333,No,0.1,1,0.4,Yes
0.754755,CLG0013,0.320755,0.837349,0.780277,0.444444,?,0.6,0.222222,0.8,No
0.755756,CLG0025,0.830189,0.690763,0.717993,0,No,0.6,0.111111,0,No
0.756757,CLG0086,0.528302,0.871486,0.875433,0.222222,Yes,0,0,0.6,No
0.757758,CLG0081,0.481132,0.797189,0.82699,0.333333,No,0.9,0.222222,0.8,No
0.758759,CLG0078,0.339623,0.345382,0.292388,0,No,0,0,0.2,No
0.75976,CLG0067,0.556604,0.7751,0.745675,0.222222,Yes,0.6,0.555556,0.8,No
0.760761,CLG0068,0.377358,0.261044,0.230104,0.333333,No,0.5,0.111111,0.8,No
0.761762,CLG0099,0.471698,0.327309,0.302768,0.888889,Yes,0.3,0.222222,0.4,No
0.762763,CLG0047,0.820755,0.106426,0.233564,0.222222,No,0.2,0.777778,0.2,No
0.763764,CLG0055,0.443396,0.937751,0.880623,0.222222,No,0.4,0.444444,1,No
0.764765,CLG0092,0.622642,0.291165,0.368512,0.333333,No,0.4,0.111111,0.4,No
0.765766,CLG0043,0.358491,0.52008,0.444637,0.888889,No,1,0.111111,0.8,No
0.766767,CLG0002,0.45283,0.391566,0.396194,0.888889,No,0.2,0.222222,0,No
0.767768,CLG0045,0.707547,0.961847,0.930796,0,No,0.5,0.222222,0.6,Yes
0.768769,CLG0048,0.367925,0.335341,0.297578,0.777778,No,0.2,0.777778,0.6,No
0.76977,CLG0062,0.716981,0.779116,0.714533,1,No,0.3,0.444444,0.4,Yes
0.770771,CLG0038,0.556604,0.85743,0.735294,0,No,0.2,0.777778,0,No
0.771772,CLG0047,0.377358,0.435743,0.474048,0.111111,No,0.5,0.333333,0.6,No
0.772773,CLG0004,0.54717,0.37751,0.479239,1,Yes,0.8,0.888889,0,No
0.773774,CLG0060,0.59434,0.748996,0.775087,0.444444,No,0.2,0.222222,1,Yes
0.774775,CLG0049,0.54717,0.913655,0.941176,0.555556,No,0,0.111111,1,No
0.775776,CLG0076,0.235849,0.75502,0.783737,0.111111,No,0.6,0.555556,0.4,No
0.776777,CLG0034,0.358491,0.226908,0.33045,1,?,0.4,0.333333,0.2,No
0.777778,CLG0044,0.424528,0.889558,0.852941,0.444444,Yes,0.3,0.111111,0,No
0.778779,CLG0094,0.443396,0.38755,0.410035,0.222222,Yes,0.2,0.555556,0,No
0.77978,CLG0085,0.54717,0.576305,0.553633,0.666667,No,0.6,0.333333,0.2,No
0.780781,CLG0056,0.481132,0.833333,0.846021,0,No,0.1,1,0.8,Yes
0.781782,CLG0092,0.264151,0.186747,0.178201,0.444444,No,1,0.333333,0.8,No
0.782783,CLG0042,0.509434,0.785141,0.67301,0.222222,No,0.3,1,0.8,Yes
0.783784,CLG0050,0.54717,0.596386,0.66436,0.111111,Yes,0.1,0.333333,0.4,No
0.784785,CLG0069,0.537736,0.895582,0.757785,0.222222,No,0.9,0.333333,0.8,No
0.785786,CLG0033,0.613208,0.170683,0.302768,1,No,0.7,0.777778,0.4,Yes
0.786787,CLG0098,0.575472,0.419679,0.474048,0.333333,Yes,0.2,0,0.2,No
0.787788,CLG0096,0.518868,0.833333,0.761246,0.111111,No,0.4,0.888889,0,No
0.788789,CLG0091,0.443396,0.018072,0.122837,0.111111,Yes,1,0.222222,0.6,No
0.78979,CLG0067,0.226415,0.110442,0.223183,0.222222,No,0.3,0.444444,0.6,No
0.790791,CLG0042,0.518868,0.991968,0.884083,?,No,0.4,0.444444,0.4,No
0.791792,CLG0044,0.490566,0.279116,0.359862,0.555556,No,0.3,0.333333,0.4,No
0.792793,CLG0068,0.5,0.977912,0.967128,0.111111,No,0.7,0.333333,1,No
0.793794,CLG0100,0.273585,0.180723,0.185121,0,No,0.5,0.666667,0,No
0.794795,CLG0057,0.301887,0.361446,0.304498,0.777778,No,0,0.333333,0.2,No
0.795796,CLG0036,0.603774,0.753012,0.66955,1,No,0.4,1,0,?
0.796797,CLG0041,0.45283,0.658635,0.588235,0.333333,No,0,0.222222,1,No
0.797798,CLG0056,0.556604,0.582329,0.5,0.111111,No,0.2,0.888889,0.4,No
0.798799,CLG0003,0.462264,0.53012,0.569204,0.333333,Yes,1,0.333333,0,No
0.7998,CLG0056,0.462264,0.845382,0.780277,0.111111,No,0.5,0.333333,0.4,No
0.800801,CLG0056,0.59434,0.232932,0.3391,0.444444,No,0.8,1,0.6,Yes
0.801802,CLG0065,0.386792,?,0.410035,0.666667,No,0.2,0.777778,0,No
0.802803,CLG0039,0.471698,0.154618,0.197232,0.555556,No,0.3,0.666667,0.2,No
0.803804,CLG0040,0.396226,0.596386,0.610727,0.111111,No,0.9,0.333333,0.6,No
0.804805,CLG0039,0.396226,0.248996,0.352941,0.333333,No,0,0.777778,0.2,No
0.805806,CLG0027,?,0.333333,0.363322,0.777778,No,0.9,1,0.2,No
0.806807,CLG0067,0.490566,0.471888,0.456747,0.666667,Yes,0.1,0.111111,0.4,No
0.807808,CLG0100,0.386792,0.024096,0.157439,0.666667,No,0.6,0.888889,0.2,No
0.808809,CLG0094,0.632075,0.090361,0.117647,0.333333,No,0.7,0.111111,1,No
0.80981,CLG0065,0.330189,0.686747,0.591696,0,Yes,0,1,0.8,Yes
0.810811,CLG0074,0.433962,0.427711,0.432526,0.666667,No,0.8,0.222222,0.2,No
0.811812,CLG0003,0.396226,0.865462,0.868512,0.555556,No,0.5,0.555556,0,No
0.812813,CLG0003,0.660377,0.694779,0.589965,0.777778,Yes,0,0.666667,1,No
0.813814,CLG0037,0.481132,0.006024,0.093426,0.444444,No,0.3,0.888889,0.4,No
0.814815,CLG0098,0.603774,0.616466,0.619377,0.777778,Yes,0.3,0.777778,0.4,Yes
0.815816,CLG0020,0.245283,0.092369,0.226644,1,Yes,0.6,0.555556,1,No
0.816817,CLG0011,0.5,0.781124,0.709343,0.777778,No,0,0.777778,0.8,Yes
0.817818,CLG0083,0.584906,0.993976,0.891003,0.888889,Yes,0.9,0.444444,0.4,Yes
0.818819,CLG0091,0.471698,0.532129,0.520761,0,No,0.8,1,0.4,No
0.81982,CLG0024,0.603774,0.682731,0.636678,0.222222,No,0,1,0.6,Yes
0.820821,CLG0070,0.386792,0.236948,0.318339,0.555556,No,0.9,0.888889,0.6,No
0.821822,CLG0065,0.660377,0.437751,0.474048,?,No,0.2,0.333333,0.6,No
0.822823,CLG0083,0.783019,0.85743,0.856401,0.777778,Yes,0,0,0.8,Yes
0.823824,CLG0074,0.40566,0.166667,0.271626,1,No,0,0.777778,1,No
0.824825,CLG0032,0.396226,0.26506,0.373702,0,No,0.3,0.444444,0.4,No
0.825826,CLG0062,0.660377,0.445783,0.444637,0.444444,Yes,0.1,0.888889,0.4,Yes
0.826827,CLG0055,0.679245,0.712851,0.769896,0.333333,Yes,0.8,0.222222,0.4,Yes
0.827828,CLG0036,0.386792,0.375502,0.347751,0,No,0,0.888889,0.2,No
0.828829,CLG0066,0.396226,0.929719,0.910035,1,No,0.2,0.777778,0.4,Yes
0.82983,CLG0037,0.415094,0.092369,0.157439,0.555556,No,0.1,0.555556,0.4,No
0.830831,CLG0014,0.264151,0.369478,0.446367,1,Yes,0,1,1,No
0.831832,CLG0046,0.330189,0.708835,0.679931,0.222222,No,1,1,0,No
0.832833,CLG0077,?,0.2249,0.314879,0.444444,Yes,0.8,0.777778,0,No
0.833834,CLG0056,0.349057,0.656627,0.712803,0.555556,No,0.4,0.777778,0.4,Yes
0.834835,CLG0050,0.45283,0.162651,0.252595,0.333333,No,1,0.666667,0.2,No
0.835836,CLG0061,0.490566,0.054217,0.16782,1,Yes,0.5,0.666667,0.2,No
0.836837,CLG0017,0.679245,0.120482,0.102076,1,Yes,0.7,0.222222,0.8,No
0.837838,CLG0027,0.320755,0.931727,0.823529,0.555556,No,0.6,0.666667,0.8,No
0.838839,CLG0054,0.59434,0.552209,0.629758,0.666667,Yes,0.6,0.222222,1,Yes
0.83984,CLG0029,0.424528,0.797189,0.792388,0.111111,No,0.8,0.888889,0.4,Yes
0.840841,CLG0013,0.45283,0.331325,0.368512,0.666667,Yes,0.2,0.444444,0.6,No
0.841842,CLG0049,0.556604,0.592369,0.560554,0.666667,No,0.9,0.777778,0.2,No
0.842843,CLG0025,0.301887,0.493976,0.418685,0.111111,Yes,0.7,0.222222,0.6,No
0.843844,CLG0088,0.509434,0.947791,0.866782,0.222222,No,0.5,0.222222,0.8,No
0.844845,CLG0100,0.481132,0.748996,0.717993,0.222222,No,0.7,0.222222,?,No
0.845846,CLG0023,0.528302,0.730924,0.652249,0,Yes,0.3,0.777778,0.6,Yes
0.846847,CLG0026,0.5,0.044177,0.053633,?,Yes,0,0.888889,0.4,No
0.847848,CLG0048,0.801887,0.550201,0.548443,1,No,1,0.666667,0.6,No
0.848849,CLG0036,0.367925,0.465863,0.489619,0.555556,No,0.2,0,0.8,No
0.84985,CLG0006,0.386792,0.929719,0.82872,0.888889,Yes,0.9,0.555556,0.2,No
0.850851,CLG0080,0.367925,0.257028,0.309689,0.888889,Yes,0.2,0.222222,0.2,No
0.851852,CLG0074,0.377358,0.269076,0.373702,0,Yes,0,0,0.2,No
0.852853,CLG0039,0.367925,0.411647,0.422145,0.666667,No,0.4,1,0.4,No
0.853854,CLG0057,0.622642,0.242972,0.344291,0.555556,No,0.5,0.111111,0.2,No
0.854855,CLG0091,0.660377,0.128514,0.257785,0.333333,No,0.8,0.222222,0.6,No
0.855856,CLG0066,0.377358,0.859438,0.742215,0.222222,No,0.7,0.666667,0,No
0.856857,CLG0010,0.339623,0.558233,0.484429,0.888889,Yes,0.3,0.555556,1,No
0.857858,CLG0072,0.528302,0.863454,0.813149,1,Yes,0.5,0.111111,1,No
0.858859,CLG0009,0.377358,0.833333,0.806228,0.444444,No,0.2,0.444444,0,No
0.85986,CLG0077,0.54717,0.281124,0.302768,0.777778,No,0,0,1,No
0.860861,CLG0072,0.490566,0.548193,0.515571,0.333333,No,0.8,0.222222,0.4,No
0.861862,CLG0027,0.245283,0.082329,0.16782,0.333333,No,0.7,0,0.6,No
0.862863,CLG0046,0.679245,0.917671,0.776817,0.555556,Yes,0.5,0.222222,1,Yes
0.863864,CLG0063,0.707547,0.403614,0.50173,0.555556,No,0.2,0.111111,0.4,No
0.864865,CLG0042,0.367925,0.393574,0.365052,0.222222,Yes,1,0.333333,0,No
0.865866,CLG0085,0.40566,0.301205,0.404844,0.111111,No,0.4,0.444444,1,No
0.866867,CLG0041,0.5,0.459839,0.401384,0.888889,No,0.8,0.222222,0.2,No
0.867868,CLG0034,0.509434,0.251004,0.243945,0.111111,No,0.6,1,0,No
0.868869,CLG0093,0.54717,0.373494,0.347751,0.888889,Yes,0.1,0.444444,0,No
0.86987,CLG0030,0.745283,0.801205,0.849481,0.777778,No,0.5,0.666667,0,?
0.870871,CLG0044,0.433962,0.835341,0.705882,1,Yes,0.8,1,0.4,Yes
0.871872,CLG0080,0.349057,0.303213,0.358131,0.666667,Yes,1,0.888889,0.8,No
0.872873,CLG0001,0.264151,0.46988,0.541522,0.444444,No,1,0.777778,0.4,No
0.873874,CLG0045,0.358491,0.875502,0.856401,0.222222,No,0.9,0.555556,0.8,No
0.874875,CLG0047,0.45283,0.050201,0.091696,0.111111,No,0,0.888889,0.4,No
0.875876,CLG0093,0.707547,0.891566,0.920415,0.777778,Yes,0.4,0.777778,1,Yes
0.876877,CLG0030,0.386792,0.218876,0.32872,0.111111,No,0.8,0.333333,1,No
0.877878,CLG0022,0.490566,0.678715,0.645329,0.777778,Yes,0.2,0.111111,1,No
0.878879,CLG0015,0.45283,0.582329,?,0.444444,Yes,0.2,0.888889,0,No
0.87988,CLG0084,0.622642,0.552209,0.629758,0.888889,No,0.9,0.555556,0.2,No
0.880881,CLG0038,0.811321,0.861446,0.897924,0.333333,Yes,0.8,1,0.6,Yes
0.881882,CLG0023,0.386792,0.100402,0.150519,0.777778,Yes,0.2,0.777778,0.8,No
0.882883,CLG0031,0.386792,0.34739,0.432526,0.666667,Yes,1,0.777778,0.4,No
0.883884,CLG0057,0.603774,0.538153,0.50173,0.777778,Yes,0.8,0.333333,1,No
0.884885,CLG0081,0.556604,0.813253,0.750865,0.444444,No,0.9,1,0.2,No
0.885886,CLG0035,0.716981,0.214859,0.198962,0.111111,No,0.2,0.444444,0.6,?
0.886887,CLG0066,0.537736,0.803213,0.714533,0.666667,No,0.7,0,0.2,No
0.887888,CLG0053,0.40566,0.399598,0.444637,0.222222,Yes,0.9,0.888889,1,No
0.888889,CLG0031,0.537736,0.186747,0.235294,1,No,0.8,0.666667,0.8,No
0.88989,CLG0026,0.613208,0.759036,0.679931,1,No,0.2,0,0.8,Yes
0.890891,CLG0031,0.575472,0.088353,0.131488,1,No,0,1,0.6,Yes
0.891892,CLG0072,0.528302,0.514056,0.49308,1,No,0.8,1,0.6,No
0.892893,CLG0080,0.613208,0.062249,0.211073,0.111111,No,0.6,0.222222,1,No
0.893894,CLG0012,0.622642,0.355422,0.439446,0.222222,Yes,0.5,0.888889,1,Yes
0.894895,CLG0053,0.650943,0.60241,0.572664,0.333333,No,0.3,0,0.8,No
0.895896,CLG0056,0.54717,0.556225,0.622837,1,Yes,0.4,0.555556,0.8,No
0.896897,CLG0083,0.433962,0.403614,0.392734,0.666667,Yes,0.6,0.444444,0,No
0.897898,CLG0062,0.481132,0.429719,0.472318,1,Yes,0.8,0.333333,0.6,No
0.898899,CLG0044,0.632075,0.2249,0.347751,0,No,0.5,0,0.6,No
0.8999,CLG0058,0.339623,0.455823,0.446367,0.555556,Yes,0.3,0.666667,0.8,No
0.900901,CLG0077,0.509434,0.955823,0.927336,0.555556,No,0.3,0,0.4,No
0.901902,CLG0065,0.40566,0.851406,0.771626,0.777778,Yes,0.9,0,0,No
0.902903,CLG0013,0.462264,0.144578,0.157439,0.111111,No,0.2,0.111111,0.4,No
0.903904,CLG0061,0.641509,0.028112,0.108997,0.111111,Yes,0.1,0.888889,0.8,Yes
0.904905,CLG0068,0.481132,0.935743,0.961938,0,No,0.3,0,0,No
0.905906,CLG0051,0.462264,0.526104,0.517301,0.222222,No,0.5,0.777778,0,No
0.906907,CLG0062,0.264151,0.538153,0.612457,0.666667,Yes,0,0,0.8,No
0.907908,CLG0048,0.566038,0.781124,0.816609,0.777778,No,0.1,0,1,Yes
0.908909,CLG0095,0.54717,0.313253,0.299308,0.666667,Yes,0.7,0.888889,0.2,No
0.90991,CLG0063,0.764151,0.481928,0.470588,0.888889,No,0.2,0.777778,0.2,No
0.910911,CLG0072,0.415094,0.96988,0.932526,0.777778,No,0,0,0.6,No
0.911912,CLG0091,0.490566,0.672691,0.655709,0.777778,Yes,0.1,0.666667,0.8,No
0.912913,CLG0072,0.490566,0.15261,0.134948,0.111111,No,0.2,0.777778,1,No
0.913914,CLG0051,0.679245,0.13253,0.271626,0,Yes,0.1,0.111111,0.8,No
0.914915,CLG0024,0.443396,0.202811,0.290657,0.555556,No,0.3,0.333333,1,No
0.915916,CLG0086,0.5,0.767068,0.723183,0.666667,No,0.3,0.111111,0.4,No
0.916917,CLG0040,0.54717,0.295181,0.347751,0.555556,No,1,0.555556,0.8,No
0.917918,CLG0029,0.481132,0.02008,0.019031,0.666667,No,0.9,0.444444,0.2,No
0.918919,CLG0073,0.396226,0.945783,0.887543,0.777778,No,0.1,0.444444,1,No
0.91992,CLG0017,0.481132,0.168675,0.292388,0.111111,No,0,0.777778,0.8,No
0.920921,CLG0001,0.613208,0.008032,0.148789,0,No,0.2,0,0.4,No
0.921922,CLG0096,0.311321,0.236948,0.249135,1,No,0.3,1,0.6,No
0.922923,CLG0084,0.471698,0.23494,0.280277,0.777778,No,1,0.111111,1,No
0.923924,CLG0001,0.358491,0.421687,0.470588,0.777778,No,0.5,0,0,No
0.924925,CLG0025,0.622642,0.921687,0.8391,0.777778,No,0.4,0.333333,1,Yes
0.925926,CLG0041,0.245283,0.881526,0.756055,1,Yes,0.1,0.111111,0.6,No
0.926927,CLG0091,0.377358,0.455823,0.467128,0.666667,Yes,0.3,1,0.4,No
0.927928,CLG0023,0.509434,0.409639,0.442907,0.111111,No,0.5,0.666667,0.8,No
0.928929,CLG0018,0.679245,0.556225,0.467128,0.333333,No,0.3,0.444444,0.2,No
0.92993,CLG0095,0.45283,0.242972,0.212803,0.888889,Yes,1,0.444444,1,No
0.930931,CLG0028,0.377358,0.050201,0.065744,0.777778,No,1,0,0.8,No
0.931932,CLG0085,0.726415,0.941767,0.858131,0.333333,No,0.6,0.111111,1,Yes
0.932933,CLG0012,0.254717,0.184739,0.238754,0.777778,No,0.5,0.444444,0,?
0.933934,CLG0088,0.150943,0.196787,0.205882,1,No,0.5,0.666667,0.2,No
0.934935,CLG0049,0.518868,0.471888,0.441176,0.555556,Yes,0.9,0,0.6,No
0.935936,CLG0097,0.386792,0.491968,0.560554,0.888889,Yes,0.1,0.666667,1,No
0.936937,CLG0081,0.311321,0.016064,0.025952,0,No,1,0.111111,0.4,No
0.937938,CLG0097,0.556604,0.146586,0.198962,0.555556,No,0.6,0.111111,0.6,No
0.938939,CLG0016,0.490566,0.37751,0.475779,0.333333,No,0.8,0.888889,0,No
0.93994,CLG0027,0.377358,0.684739,0.685121,0.222222,No,0.5,0.777778,1,Yes
0.940941,CLG0053,0.273585,0.226908,0.306228,0.444444,Yes,0.7,1,0,No
0.941942,CLG0092,0.584906,0.423695,0.425606,1,No,0.5,0.333333,0.8,No
0.942943,CLG0036,0.54717,0.558233,0.470588,0.777778,Yes,0.5,0.444444,0.8,No
0.943944,CLG0007,0.443396,0.889558,0.865052,1,No,0.3,0.888889,1,Yes
0.944945,CLG0034,0.716981,0.325301,0.375433,0.555556,Yes,0.5,0.333333,0.8,No
0.945946,CLG0065,0.301887,0.13253,0.119377,0,?,0.9,1,0,No
0.946947,CLG0004,0.245283,0.48996,0.487889,0.555556,No,0.3,0.777778,0.2,No
0.947948,CLG0026,0.358491,0.746988,0.788927,0.666667,No,0.9,0.444444,1,?
0.948949,CLG0020,0.45283,0.108434,0.115917,0.555556,No,0.5,0,0.6,No
0.94995,CLG0051,0.490566,0.423695,0.430796,0.222222,No,0,0.666667,0.6,No
0.950951,CLG0077,0.424528,0.016064,0.079585,0.888889,Yes,0.6,1,0.4,No
0.951952,CLG0099,0.509434,0.032129,0.153979,1,No,0.1,0.222222,0.4,No
0.952953,CLG0010,0.283019,0.481928,0.543253,1,No,0.5,0.666667,0.2,No
0.953954,CLG0008,0.660377,0.297189,0.373702,0.333333,No,0.8,0.777778,0.8,Yes
0.954955,CLG0018,0.443396,0.84739,0.780277,0.444444,No,0.9,0.333333,?,No
0.955956,CLG0017,0.613208,0.60241,0.517301,0.444444,Yes,0.2,0.555556,0.2,No
0.956957,CLG0069,0.509434,0.453815,0.437716,0.222222,Yes,0.3,1,0.6,No
0.957958,CLG0030,0.518868,0.407631,0.455017,0.111111,No,0.4,0.666667,0.8,No
0.958959,CLG0095,0.537736,0.497992,0.536332,0.777778,Yes,0.7,0.777778,0.6,No
0.95996,CLG0039,0.518868,0.038153,0.186851,0.666667,No,0.9,0.222222,0,No
0.960961,CLG0061,0.54717,0.893574,0.83391,0.444444,Yes,0.5,0.666667,1,No
0.961962,CLG0024,0.641509,1,0.956747,0,No,0.7,0.444444,0.4,Yes
0.962963,CLG0081,0.481132,0.180723,0.235294,1,Yes,0.2,0.666667,0.8,No
0.963964,CLG0098,0.556604,0.118474,0.114187,0,No,0.2,0.555556,0.4,No
0.964965,CLG0035,0.443396,0.14257,0.188581,0.777778,No,0.8,0.444444,0.2,No
0.965966,CLG0079,0.660377,0.662651,0.650519,0.333333,Yes,0.5,0.222222,1,Yes
0.966967,CLG0061,0.358491,0.662651,0.721453,0.333333,No,0.7,1,0,No
0.967968,CLG0075,0.716981,0.849398,0.782007,0.888889,Yes,0.3,0.111111,0.8,Yes
0.968969,CLG0098,0.45283,0.753012,0.804498,0.111111,No,0.4,0.222222,0.8,No
0.96997,CLG0072,0.254717,0.449799,0.467128,0.444444,No,0.8,0.111111,0.6,No
0.970971,CLG0015,0.471698,0.61245,0.555363,0.555556,No,0.6,0.222222,0.4,No
0.971972,CLG0036,0.358491,0.688755,0.612457,0.555556,Yes,0.4,0.111111,0,No
0.972973,CLG0055,0.575472,0.512048,0.451557,1,Yes,0.6,0,1,No
0.973974,CLG0037,0.367925,0.475904,0.474048,0.222222,No,1,0.888889,0.6,No
0.974975,CLG0087,0.396226,0.646586,0.546713,1,No,0.8,1,1,No
0.975976,CLG0062,0.188679,0.558233,0.544983,0.555556,Yes,0.2,0.444444,0,No
0.976977,CLG0064,0.396226,0.644578,0.712803,1,No,0.2,0.888889,0,No
0.977978,CLG0039,0.113208,0.61245,0.629758,1,No,0.3,0.777778,0.2,No
0.978979,CLG0090,0.235849,0.720884,0.738754,0.444444,Yes,1,0.666667,0.2,No
0.97998,CLG0098,0.566038,0.64257,0.560554,0.777778,No,0.9,0.555556,0.6,No
0.980981,CLG0075,0.566038,0.52008,0.515571,0.333333,No,0.6,0.333333,0.6,No
0.981982,CLG0012,0.518868,0.682731,0.624567,1,No,0.4,1,1,Yes
0.982983,CLG0072,0.320755,0.449799,0.527682,1,Yes,0.4,1,0.6,No
0.983984,CLG0008,0.45283,0.240964,0.224913,0.222222,No,0.3,0.666667,0,No
0.984985,CLG0041,0.45283,0,0.065744,0.555556,Yes,0.7,0.666667,0.8,No
0.985986,CLG0069,0.292453,0.560241,?,1,Yes,0.2,0,0.2,No
0.986987,CLG0074,0.669811,0.590361,0.583045,0.888889,No,0.1,0.888889,1,Yes
0.987988,CLG0003,?,0.973896,0.968858,0.777778,Yes,0.3,0.333333,1,Yes
0.988989,CLG0043,0.424528,0.361446,0.33737,1,Yes,0.7,0.666667,1,No
0.98999,CLG0037,0.462264,0.393574,0.391003,0.777778,No,0.3,0.888889,0.8,?
0.990991,CLG0086,0.490566,0.200803,0.295848,0.222222,No,0.7,0.111111,0.4,No
0.991992,CLG0057,0.169811,0.068273,0.136678,0,No,0.4,0.777778,0.2,No
0.992993,CLG0025,0.424528,0.773092,0.721453,0.222222,No,0.8,0.333333,1,No
0.993994,CLG0004,0.358491,0.248996,0.205882,0.222222,No,0.1,0.333333,0.4,No
0.994995,CLG0058,0.311321,0.608434,0.640138,0.555556,No,0.7,0.222222,0.4,No
0.995996,CLG0037,0.415094,0.688755,0.747405,?,Yes,0.6,1,0.6,Yes
0.996997,CLG0008,0.707547,0.471888,0.5,0.111111,No,0.1,0.333333,1,No
0.997998,CLG0094,0.54717,0.87751,0.891003,0.888889,Yes,0.4,0.888889,0,No
0.998999,CLG0009,0.377358,0.443775,0.458478,0.555556,No,0.5,0,0.8,No
1,CLG0079,0.537736,0.283133,0.269896,0.444444,No,0.8,0.888889,1,No
