@relation 'Stu Performance-weka.filters.unsupervised.attribute.ReplaceMissingValues-weka.filters.unsupervised.attribute.Normalize-S1.0-T0.0'

@attribute Student_ID numeric
@attribute Hours_Studied numeric
@attribute Attendance numeric
@attribute Parental_Involvement {Low,Medium,High}
@attribute Access_to_Resources {High,Medium,Low}
@attribute Extracurricular_Activities {No,Yes}
@attribute Sleep_Hours numeric
@attribute Previous_Scores numeric
@attribute Motivation_Level {Low,Medium,High}
@attribute Internet_Access {Yes,No}
@attribute Tutoring_Sessions numeric
@attribute Family_Income {Low,Medium,High}
@attribute Teacher_Quality {Medium,High,Low}
@attribute School_Type {Public,Private}
@attribute Peer_Influence {Positive,Negative,Neutral}
@attribute Physical_Activity numeric
@attribute Learning_Disabilities {No,Yes}
@attribute Parental_Education_Level {'High School',College,Postgraduate}
@attribute Distance_from_Home {Near,Moderate,Far}
@attribute Gender {Male,Female}
@attribute Exam_Score numeric
@attribute Academic_Performance numeric

@data
0,0.52381,0.6,Low,High,No,0.5,0.46,Low,Yes,0,Low,Medium,Public,Positive,0.5,No,'High School',Near,Male,0.214286,8
0.001001,0.428571,0.1,Low,Medium,No,0.666667,0.18,Low,Yes,0.333333,Medium,Medium,Public,Negative,0.666667,No,College,Moderate,Female,0.071429,8
0.002002,0.547619,0.95,Medium,Medium,Yes,0.5,0.82,Medium,Yes,0.333333,Medium,Medium,Public,Neutral,0.666667,No,Postgraduate,Near,Male,0.380952,9
0.003003,0.666667,0.725,Low,Medium,Yes,0.666667,0.96,Medium,Yes,0.166667,Medium,Medium,Public,Negative,0.666667,No,'High School',Moderate,Male,0.309524,6
0.004004,0.428571,0.8,Medium,Medium,Yes,0.333333,0.3,Medium,Yes,0.5,Medium,High,Public,Neutral,0.666667,No,College,Near,Female,0.285714,7
0.005005,0.428571,0.7,Medium,Medium,Yes,0.666667,0.78,Medium,Yes,0.5,Medium,Medium,Public,Positive,0.5,No,Postgraduate,Near,Male,0.309524,7
0.006006,0.666667,0.6,Medium,Low,Yes,0.5,0.36,Low,Yes,0.166667,Low,Medium,Private,Neutral,0.333333,No,'High School',Moderate,Male,0.214286,5
0.007007,0.571429,0.45,Low,High,Yes,0.333333,0,Medium,Yes,0.166667,High,High,Public,Negative,0.333333,No,'High School',Far,Male,0.190476,7
0.008008,0.380952,0.85,Medium,High,No,0.333333,0.6,High,Yes,0,Medium,Low,Private,Neutral,0.166667,No,College,Near,Male,0.261905,9
0.009009,0.52381,0.95,Medium,Medium,Yes,0.666667,0.42,Medium,Yes,0,High,High,Public,Positive,0.833333,No,'High School',Moderate,Male,0.333333,4
0.01001,0.380952,0.5,Low,High,No,0.666667,0.76,Medium,No,0.666667,Medium,High,Private,Neutral,0.666667,No,College,Moderate,Male,0.238095,2
0.011011,0.380952,0.925,Medium,High,Yes,0.333333,0.74,Low,Yes,0.333333,Low,High,Private,Neutral,0.333333,No,'High School',Near,Male,0.309524,8
0.012012,0.455896,0.575,Medium,Medium,Yes,0.666667,0.503387,Low,Yes,0.333333,Medium,Medium,Public,Positive,0.666667,No,'High School',Near,Male,0.285714,7
0.013013,0.190476,0.55,Medium,Medium,Yes,0.666667,0.44,Medium,Yes,0.333333,Medium,Medium,Private,Positive,0.5,No,Postgraduate,Near,Male,0.190476,6
0.014014,0.214286,0.45,Medium,Medium,Yes,0.666667,0.48,Medium,Yes,0.166667,Low,Medium,Private,Neutral,0.666667,No,'High School',Near,Male,0.166667,7
0.015015,0.380952,0.2,Medium,Medium,No,0.666667,0.4,Medium,Yes,0.333333,Medium,Medium,Private,Positive,0.666667,No,'High School',Near,Female,0.142857,3
0.016016,0.309524,0,Medium,Low,Yes,1,0.3,Low,Yes,0,High,Medium,Private,Positive,0.5,No,College,Near,Male,0.047619,6
0.017017,0.5,0.25,Low,Medium,Yes,0.333333,0.64,Medium,Yes,0.166667,Low,High,Public,Neutral,0.5,No,'High School',Near,Female,0.166667,10
0.018018,0.333333,0.5,Medium,Medium,Yes,0.833333,0.82,Low,Yes,0.5,Low,Medium,Public,Positive,0.333333,No,College,Moderate,Female,0.214286,7
0.019019,0.261905,0.375,Medium,High,Yes,0.5,0.16,Medium,Yes,0.5,Medium,Medium,Private,Positive,0.666667,No,College,Near,Male,0.190476,7
0.02002,0.666667,0.45,Medium,Medium,No,0.166667,0.98,High,Yes,0,High,Medium,Public,Negative,0.505735,No,'High School',Moderate,Female,0.261905,5
0.021021,0.428571,0.975,Medium,High,No,0.333333,0.68,Medium,Yes,0.166667,Medium,High,Public,Neutral,0.5,No,'High School',Near,Male,0.333333,3
0.022022,0.452381,0.35,Medium,High,No,0.666667,0.78,Low,Yes,0.166667,Medium,Medium,Public,Negative,0.333333,No,College,Moderate,Female,0.190476,2
0.023023,0.238095,0.45,High,Medium,Yes,0.666667,1,High,Yes,0.166667,Low,Medium,Public,Neutral,0.5,No,'High School',Moderate,Male,0.190476,7
0.024024,0.380952,0.125,Low,High,Yes,0.166667,0.5,Medium,Yes,0.333333,Low,Medium,Public,Positive,0.5,No,'High School',Near,Female,0.119048,?
0.025025,0.47619,0.05,High,Low,Yes,0.333333,0.08,High,Yes,0,High,High,Public,Positive,0.5,No,Postgraduate,Far,Male,0.142857,2
0.026026,0.285714,0.775,Low,Medium,No,0.333333,0.8,Medium,Yes,0.166667,High,Medium,Public,Negative,0.333333,Yes,'High School',Moderate,Female,0.166667,8
0.027027,0.5,0.575,High,High,Yes,0.333333,0.88,Medium,Yes,0,High,Medium,Public,Neutral,0.333333,No,College,Moderate,Male,0.309524,2
0.028028,0.357143,0.75,Medium,Medium,No,0,0.16,Medium,Yes,0.166667,Low,Medium,Public,Neutral,0.5,No,'High School',Moderate,Female,0.190476,6
0.029029,0.404762,0.15,High,High,No,0,0.02,Low,Yes,0.333333,Low,Medium,Private,Neutral,0.333333,No,College,Near,Male,0.142857,4
0.03003,0.357143,0.575,Low,Medium,No,0.333333,0.14,Medium,Yes,0,High,Low,Public,Positive,0.666667,Yes,'High School',Near,Female,0.119048,9
0.031031,0.714286,0.25,Medium,High,Yes,0.5,0.32,Medium,Yes,0.166667,High,Medium,Public,Negative,0.5,No,College,Near,Male,0.261905,5
0.032032,0.452381,0.225,Medium,Medium,Yes,0.666667,0.92,Medium,Yes,0.333333,Medium,High,Public,Positive,0.5,No,'High School',Near,Male,0.214286,4
0.033033,0.309524,0,High,Medium,No,0.166667,0,Medium,Yes,0.333333,Medium,Medium,Public,Neutral,0.5,No,College,Near,Female,0.071429,8
0.034034,0.571429,0.125,High,Medium,No,0.166667,0.8,Medium,Yes,0.333333,Medium,Medium,Public,Positive,0.5,No,College,Moderate,Female,0.238095,3
0.035035,0.285714,0.3,Low,Medium,No,0.333333,0.86,Low,Yes,0.166667,Low,Medium,Public,Negative,0.5,No,'High School',Near,Male,0.071429,9
0.036036,0.47619,0.125,Medium,Low,Yes,0.5,0.82,Low,Yes,0.333333,Medium,High,Public,Positive,0.5,No,'High School',Far,Female,0.142857,8
0.037037,0.166667,0.975,Medium,Medium,No,0.833333,0.08,Low,Yes,0.333333,Low,Medium,Public,Neutral,0.833333,No,Postgraduate,Near,Female,0.214286,8
0.038038,0.261905,0.3,Low,Medium,Yes,0.666667,0.68,Medium,Yes,0.166667,Low,Medium,Public,Positive,0.833333,No,'High School',Near,Female,0.119048,10
0.039039,0.47619,0.125,Low,Medium,Yes,0.333333,0.96,Low,Yes,0.166667,Medium,High,Public,Negative,0.666667,No,'High School',Near,Male,0.142857,5
0.04004,0.547619,0.2,High,Medium,No,0.666667,0.12,Low,Yes,0.5,High,High,Public,Neutral,0.166667,No,College,Near,Male,0.214286,1
0.041041,0.47619,0.6,Medium,Medium,Yes,0.333333,0.503387,Low,Yes,0.166667,Medium,High,Public,Neutral,0.333333,Yes,College,Far,Female,0.166667,10
0.042042,0.428571,0.075,Low,High,No,0.5,0.88,Medium,Yes,0.166667,Medium,Medium,Private,Positive,0.5,No,'High School',Moderate,Male,0.142857,9
0.043043,0.404762,0.85,Medium,Medium,Yes,0.5,0.64,Medium,Yes,0.5,Medium,Medium,Private,Negative,0.333333,Yes,College,Near,Male,0.285714,2
0.044044,0.238095,0.95,Medium,Medium,Yes,0.833333,0.64,Low,Yes,0.166667,Medium,Medium,Private,Positive,0.5,No,Postgraduate,Far,Male,0.238095,1
0.045045,0.357143,0.25,Medium,Medium,Yes,0.666667,0.96,Medium,Yes,0.333333,Medium,Medium,Public,Positive,0.5,No,'High School',Moderate,Male,0.166667,6
0.046046,0.380952,0.45,Medium,Medium,Yes,0.333333,0.76,Medium,Yes,0.166667,Medium,High,Private,Positive,0.5,No,College,Near,Female,0.238095,1
0.047047,0.595238,0.025,Medium,Low,Yes,0.333333,0.4,Medium,Yes,0.333333,Low,Medium,Public,Positive,0.5,No,'High School',Moderate,Female,0.142857,10
0.048048,0.5,0.65,Low,Medium,Yes,0.5,0.44,Low,Yes,0.5,Low,High,Public,Positive,0.333333,No,'High School',Moderate,Male,0.238095,10
0.049049,0.190476,0.425,Medium,Medium,No,0.166667,0.14,Medium,Yes,0.333333,Medium,High,Public,Neutral,0.5,No,'High School',Near,Male,0.119048,10
0.05005,0.5,0.275,Low,Medium,Yes,0.5,0.3,Low,Yes,0.166667,Medium,Low,Public,Positive,0.666667,No,College,Moderate,Male,0.142857,7
0.051051,0.404762,0.2,High,Medium,No,0.5,0.44,Medium,Yes,0,Medium,Medium,Public,Neutral,0.5,No,College,Near,Male,0.142857,7
0.052052,0.357143,0.495779,Low,Medium,Yes,0.666667,0.26,Medium,Yes,0.333333,Medium,Medium,Public,Positive,0.666667,No,'High School',Near,Male,0.214286,1
0.053053,0.547619,0.425,High,Low,No,0.666667,0.92,Medium,Yes,0,Medium,Medium,Public,Neutral,0.5,No,'High School',Near,Female,0.214286,10
0.054054,0.595238,0.175,Medium,High,Yes,0.5,0.02,Low,Yes,0.333333,High,High,Private,Neutral,0.666667,Yes,Postgraduate,Far,Female,0.190476,5
0.055055,0.595238,0.7,Medium,High,Yes,0.166667,0.503387,Medium,Yes,0.166667,Low,High,Private,Positive,0.666667,No,College,Moderate,Male,0.333333,3
0.056056,0.333333,0.575,Medium,High,No,0.166667,0.78,Low,No,0.166667,Medium,High,Public,Neutral,0.333333,Yes,'High School',Near,Female,0.220989,2
0.057057,0.404762,0.85,Medium,Medium,Yes,0.333333,0.74,High,Yes,0.166667,Medium,Medium,Public,Positive,0.666667,No,'High School',Near,Male,0.309524,5
0.058058,0.5,0.125,High,Low,No,0.666667,0.64,Medium,Yes,0.333333,Medium,High,Public,Positive,0.166667,No,Postgraduate,Near,Female,0.190476,5
0.059059,0.595238,0.775,Medium,Low,Yes,0.666667,0.42,Medium,Yes,0,Low,Medium,Private,Neutral,0.5,No,'High School',Moderate,Male,0.238095,2
0.06006,0.380952,0.675,Medium,Medium,Yes,0.5,0.92,Medium,Yes,0.166667,High,Medium,Public,Negative,0.833333,No,Postgraduate,Near,Female,0.285714,6
0.061061,0.428571,0.125,Medium,Medium,Yes,1,0.32,Low,Yes,0,Low,Medium,Public,Positive,0.5,No,'High School',Moderate,Male,0.095238,7
0.062062,0.285714,0.7,Low,High,Yes,0.833333,0.76,High,Yes,0.333333,Low,High,Private,Negative,0.666667,No,Postgraduate,Far,Male,0.238095,1
0.063063,0.285714,0.45,Medium,High,Yes,0.833333,0.92,High,Yes,0.333333,Low,Medium,Public,Neutral,0.5,No,College,Moderate,Male,0.214286,3
0.064064,0.571429,0.95,Low,High,Yes,0.666667,0.12,Medium,No,0,Medium,High,Private,Neutral,0.5,No,Postgraduate,Near,Male,0.309524,4
0.065065,0.642857,0.15,Medium,High,Yes,0.666667,0.94,Medium,Yes,0,Medium,Medium,Public,Neutral,0.333333,No,'High School',Near,Male,0.238095,2
0.066066,0.452381,0.65,Medium,Medium,Yes,0.666667,0.78,Medium,Yes,0.166667,Low,Medium,Public,Negative,0.5,No,Postgraduate,Near,Male,0.261905,10
0.067067,0.595238,0.375,Low,High,Yes,0,0.62,High,Yes,0.5,Medium,High,Private,Positive,0.333333,No,'High School',Moderate,Male,0.285714,5
0.068068,0.5,0.95,Medium,High,No,0.166667,0.38,Low,No,0.166667,Low,High,Public,Negative,0.666667,No,'High School',Moderate,Female,0.261905,4
0.069069,0.357143,0.325,Medium,Medium,No,0.5,0.9,Medium,Yes,0.166667,Low,Medium,Public,Positive,0.666667,No,'High School',Near,Male,0.166667,2
0.07007,0.5,0.95,Medium,Low,Yes,0.5,0.04,Medium,No,0.5,Medium,Medium,Public,Positive,0.5,No,College,Near,Female,0.285714,1
0.071071,0.666667,0.9,Medium,Medium,Yes,0.5,0.44,Medium,Yes,0.166667,Low,Medium,Public,Positive,0.5,No,'High School',Moderate,Male,0.309524,8
0.072072,0.452381,0.275,Medium,Medium,Yes,0.5,0.76,Medium,Yes,0.166667,Low,Low,Public,Neutral,0.666667,No,College,Near,Female,0.166667,2
0.073073,0.666667,0.8,Low,Medium,No,0,0.82,Medium,Yes,0.333333,Medium,Medium,Public,Negative,0.166667,No,Postgraduate,Near,Female,0.333333,4
0.074074,0.071429,1,High,High,Yes,0.666667,0.2,High,Yes,0,Medium,High,Private,Positive,0.666667,No,College,Moderate,Male,0.261905,10
0.075075,0.571429,0.25,Medium,Medium,No,0.5,0.04,Medium,Yes,0.166667,Medium,Medium,Public,Positive,0.5,No,Postgraduate,Near,Female,0.190476,5
0.076076,0.47619,0.425,Low,Medium,Yes,0.5,0.8,Medium,Yes,0.666667,Medium,Medium,Private,Neutral,0.5,No,Postgraduate,Moderate,Male,0.238095,2
0.077077,0.404762,0.525,High,Low,Yes,0.666667,0.42,Medium,Yes,0,Medium,Medium,Public,Neutral,0.5,No,'High School',Moderate,Female,0.166667,10
0.078078,0.47619,0.3,Medium,Medium,Yes,0.166667,0.14,Medium,Yes,0.166667,High,Medium,Public,Neutral,0.833333,Yes,College,Moderate,Male,0.142857,9
0.079079,0.166667,0.025,Medium,Medium,Yes,0.5,0.08,Medium,Yes,0.166667,High,Medium,Public,Positive,0.5,No,College,Near,Male,0.047619,2
0.08008,0.428571,0.225,Medium,High,Yes,0.5,0.64,High,Yes,0.166667,Low,Medium,Public,Negative,0.333333,No,'High School',Near,Male,0.166667,6
0.081081,0.5,0.275,High,Medium,No,0.333333,0.58,High,Yes,0.166667,Low,Low,Public,Positive,0.5,No,'High School',Near,Male,0.190476,7
0.082082,0.666667,0.45,High,High,Yes,0,0.86,Low,Yes,0.833333,Medium,High,Public,Neutral,0.5,No,College,Near,Male,0.380952,6
0.083083,0.380952,0.175,Medium,Medium,Yes,0.166667,0.04,High,Yes,0.333333,Medium,Medium,Private,Negative,0.5,No,'High School',Far,Female,0.095238,4
0.084084,0.333333,0.875,Medium,Medium,No,0.5,0.86,Medium,Yes,0.333333,Low,Medium,Public,Positive,0.666667,No,College,Moderate,Male,0.285714,1
0.085085,0.380952,0.7,Medium,High,Yes,0.5,0.88,Low,Yes,0,Medium,Medium,Public,Neutral,0.5,No,'High School',Near,Male,0.261905,2
0.086086,0.571429,0.075,Medium,High,Yes,0.5,0.44,Medium,Yes,0.5,Medium,High,Private,Negative,0.666667,No,College,Far,Male,0.214286,10
0.087087,0.5,0.65,Low,Low,No,0.333333,0.08,Medium,Yes,0.252798,Medium,Medium,Public,Neutral,0,No,'High School',Moderate,Male,0.142857,10
0.088088,0.380952,0.65,Medium,High,No,0.166667,0.94,High,Yes,0.5,High,Medium,Public,Neutral,0.5,No,College,Near,Male,0.309524,6
0.089089,0.52381,0.95,Medium,Low,Yes,0.5,0.08,Low,Yes,0,Medium,Medium,Public,Negative,0.5,No,College,Near,Female,0.238095,8
0.09009,0.47619,0,High,Medium,No,0.5,0.6,Medium,Yes,0,Medium,High,Public,Positive,0.666667,Yes,College,Near,Male,0.142857,3
0.091091,0.595238,0.25,Medium,Low,Yes,0.666667,0.5,Medium,Yes,0.166667,Medium,Low,Private,Neutral,0.666667,Yes,'High School',Far,Female,0.119048,7
0.092092,0.357143,0.925,Medium,Medium,Yes,0.333333,0.84,Low,Yes,0,High,Medium,Private,Positive,0.666667,No,College,Near,Male,0.309524,9
0.093093,0.404762,0.925,High,Medium,Yes,0,0.5,Low,Yes,0,Low,Medium,Public,Positive,0.5,No,'High School',Moderate,Male,0.261905,4
0.094094,0.404762,0.725,High,Medium,Yes,0,0.46,Medium,Yes,0.5,High,Medium,Private,Positive,0.333333,No,College,Near,Female,1,7
0.095095,0.238095,0.775,Medium,Medium,No,0.333333,0.88,Medium,Yes,0.5,Medium,Medium,Public,Neutral,0.5,No,College,Moderate,Male,0.238095,7
0.096096,0.5,0.1,Low,Medium,No,0.5,0.96,Low,No,0.166667,Medium,Medium,Public,Negative,0.5,No,'High School',Near,Male,0.095238,10
0.097097,0.5,0.525,Medium,Medium,Yes,0.5,0.54,Low,Yes,0.333333,Medium,Medium,Public,Positive,0.5,No,Postgraduate,Far,Female,0.238095,9
0.098098,0.452381,0.225,High,High,Yes,0.333333,0.46,Medium,Yes,0.333333,Low,Medium,Private,Positive,0.5,No,'High School',Far,Male,0.190476,3
0.099099,0.428571,0.175,Low,Medium,No,0.166667,0.84,High,Yes,0,Medium,Medium,Public,Positive,0.5,No,College,Near,Male,0.142857,1
0.1001,0.261905,0.8,Medium,Medium,No,0,0.84,Medium,Yes,0.333333,Medium,High,Public,Neutral,0.5,Yes,'High School',Moderate,Male,0.214286,8
0.101101,0.380952,0.125,Medium,High,Yes,0.666667,0.32,Medium,Yes,0.166667,High,High,Public,Neutral,0.666667,Yes,Postgraduate,Moderate,Female,0.166667,4
0.102102,0.404762,0.475,Medium,Medium,Yes,0.5,0.58,Medium,Yes,0,Low,High,Private,Neutral,0.5,No,College,Far,Male,0.166667,2
0.103103,0.333333,0.95,High,Medium,No,0.333333,0.16,High,Yes,0,Low,High,Public,Positive,0.5,No,College,Near,Male,0.261905,5
0.104104,0.428571,0.175,Medium,Medium,No,0.166667,0.64,High,Yes,0.166667,Low,Low,Private,Negative,0.5,No,'High School',Near,Male,0.119048,4
0.105105,0.5,0.975,Medium,Low,Yes,0.333333,0.84,Low,Yes,0.5,Medium,Medium,Public,Negative,0.666667,No,Postgraduate,Moderate,Male,0.333333,1
0.106106,0.714286,1,Medium,Medium,No,0.5,0.18,Medium,Yes,0.333333,High,High,Public,Positive,0.833333,No,Postgraduate,Moderate,Male,0.428571,7
0.107107,0.47619,0.55,Medium,High,Yes,0.5,0.32,High,Yes,0.5,Low,Medium,Public,Positive,0.5,Yes,College,Near,Female,0.261905,4
0.108108,0.5,0.175,Medium,Medium,Yes,0.5,0.44,High,Yes,0.5,Low,High,Public,Positive,0.333333,No,Postgraduate,Moderate,Female,0.214286,8
0.109109,0.452381,0.325,High,Medium,Yes,0.833333,0.84,Medium,Yes,0.333333,Medium,High,Public,Positive,0.5,No,College,Near,Male,0.261905,9
0.11011,0.166667,0.425,High,Medium,Yes,0.333333,0.74,Medium,Yes,0,Low,Medium,Public,Neutral,0.333333,No,'High School',Moderate,Male,0.119048,8
0.111111,0.452381,0.3,Medium,Medium,No,0.833333,0.32,Medium,Yes,0.5,Low,High,Private,Positive,0.5,No,Postgraduate,Near,Male,0.214286,1
0.112112,0.452381,0.275,Low,High,Yes,0.5,0.24,High,Yes,0.333333,Medium,Medium,Public,Negative,0.833333,No,College,Near,Male,0.190476,8
0.113113,0.809524,0.975,High,High,Yes,0.5,0.7,Low,Yes,0.333333,Medium,High,Private,Neutral,0.333333,No,Postgraduate,Near,Female,0.5,5
0.114114,0.428571,0.15,Medium,Medium,No,0.666667,0.48,Medium,Yes,0.166667,High,Medium,Public,Neutral,0.5,No,'High School',Near,Female,0.142857,1
0.115115,0.5,0.725,High,High,Yes,0.333333,0.6,Medium,Yes,0.166667,High,High,Public,Positive,0.5,No,'High School',Near,Female,0.357143,9
0.116116,0.452381,0,Low,High,No,0.5,0.64,High,Yes,0.333333,Low,High,Public,Positive,0.666667,Yes,'High School',Near,Male,0.119048,9
0.117117,0.285714,0.6,Medium,Medium,No,0.166667,0.56,Medium,Yes,0.166667,Low,High,Public,Positive,0.333333,No,'High School',Near,Male,0.166667,7
0.118118,0.619048,0.925,Low,High,Yes,0.666667,0.62,Medium,Yes,0,High,Medium,Public,Positive,0.833333,No,'High School',Near,Male,0.357143,7
0.119119,0.571429,0.3,High,High,Yes,0.666667,0.88,Low,Yes,0.333333,Low,Medium,Private,Positive,0.666667,No,College,Moderate,Female,0.285714,1
0.12012,0.571429,0.175,High,Medium,No,0.833333,0.86,High,Yes,0.333333,Medium,High,Public,Positive,0.5,Yes,'High School',Near,Female,0.238095,9
0.121121,0.333333,0.65,Medium,Medium,Yes,0.5,0.14,Medium,Yes,0.166667,Medium,Medium,Public,Negative,0.5,No,College,Near,Male,0.166667,1
0.122122,0.642857,0.725,Low,High,Yes,0.833333,0.58,High,Yes,0,Low,Medium,Private,Positive,0.166667,No,College,Moderate,Female,0.309524,7
0.123123,0.261905,0.7,Low,Medium,No,0.333333,0.44,Low,Yes,0.333333,Medium,Medium,Public,Positive,0.333333,No,College,Far,Male,0.142857,9
0.124124,0.547619,0.325,Medium,High,Yes,0.666667,0.28,Medium,Yes,0.666667,High,Medium,Private,Neutral,0.5,Yes,College,Moderate,Male,0.238095,9
0.125125,0.761905,0.25,Medium,Medium,Yes,0.333333,0.64,Low,Yes,0.166667,Low,High,Public,Neutral,0.666667,No,College,Near,Male,0.261905,5
0.126126,0.309524,0.95,Medium,Medium,No,0.5,0.52,Medium,Yes,0,Medium,High,Private,Positive,0.666667,No,College,Moderate,Female,0.261905,6
0.127127,0.380952,0.925,Medium,Medium,No,0.666667,0.78,Medium,Yes,0.166667,Low,Medium,Public,Neutral,0.666667,No,'High School',Far,Male,0.261905,2
0.128128,0.47619,0.45,Medium,Medium,Yes,1,0.1,Medium,Yes,0.166667,High,Low,Private,Positive,0.333333,No,College,Near,Male,0.214286,2
0.129129,0.380952,0.85,Low,Medium,Yes,0.666667,0.3,Low,Yes,0.666667,Medium,Medium,Public,Neutral,1,No,'High School',Far,Female,0.238095,10
0.13013,0.238095,0.45,Medium,High,Yes,0.666667,0.02,Medium,Yes,0.333333,Low,Medium,Public,Neutral,0.5,No,Postgraduate,Near,Male,0.142857,9
0.131131,0.452381,0.425,Medium,Medium,No,0.333333,0.74,Low,Yes,0,Low,High,Public,Positive,0.666667,No,'High School',Near,Female,0.190476,1
0.132132,0.309524,0.15,High,Low,No,0.5,0.92,Medium,Yes,0.5,Medium,High,Public,Negative,0.5,No,'High School',Near,Male,0.119048,10
0.133133,0.52381,0.425,Medium,Medium,Yes,0.5,0.58,Medium,Yes,0,Low,High,Public,Neutral,0.333333,No,'High School',Moderate,Male,0.190476,5
0.134134,0.309524,0.525,Medium,Medium,No,0.833333,0.62,Medium,Yes,0.166667,Low,High,Private,Negative,0.5,No,Postgraduate,Near,Female,0.190476,7
0.135135,0.666667,0.025,Medium,High,Yes,0.5,0.04,Low,Yes,0.5,Low,Medium,Private,Positive,0.5,No,College,Near,Female,0.214286,10
0.136136,0.333333,0.45,High,High,No,0.833333,0.5,Low,Yes,0.166667,Low,Medium,Public,Negative,0.166667,No,'High School',Near,Male,0.166667,6
0.137137,0.404762,0.775,Low,Medium,Yes,0.166667,0.52,Medium,Yes,0.166667,Medium,Medium,Public,Neutral,0.5,No,'High School',Near,Female,0.238095,6
0.138138,0.571429,0.675,Medium,Low,No,0.833333,0.04,High,Yes,0.166667,Low,High,Private,Positive,0.333333,No,'High School',Near,Male,0.238095,6
0.139139,0.285714,0.625,High,Medium,No,0.333333,0.78,Medium,Yes,0,High,Medium,Private,Neutral,0.166667,Yes,'High School',Near,Male,0.166667,8
0.14014,0.47619,0.9,Medium,Medium,No,0.666667,0.28,High,Yes,0.333333,Medium,High,Public,Neutral,0,No,College,Near,Male,0.309524,7
0.141141,0.642857,0.025,Medium,High,No,0.333333,0.72,High,Yes,0.166667,Low,Medium,Private,Negative,0.5,Yes,Postgraduate,Far,Male,0.166667,5
0.142142,0.214286,0.55,Medium,Low,No,0.666667,0.4,Medium,Yes,0.5,Low,High,Public,Positive,0.166667,Yes,Postgraduate,Near,Female,0.142857,10
0.143143,0.47619,0.775,High,Medium,No,0.333333,1,Medium,Yes,0,High,Medium,Private,Neutral,0.333333,No,Postgraduate,Near,Female,0.333333,2
0.144144,0.5,0.55,Medium,Medium,No,0.833333,0.22,Medium,Yes,0.333333,Low,Medium,Public,Negative,0.333333,Yes,'High School',Near,Female,0.166667,10
0.145145,0.571429,0.325,Medium,High,No,0.666667,0.06,High,No,0,Low,High,Private,Negative,0.833333,No,Postgraduate,Near,Female,0.190476,6
0.146146,0.285714,0.125,Low,High,No,0.333333,0.98,Medium,Yes,0,Low,Medium,Private,Negative,0.666667,No,'High School',Near,Male,0.071429,10
0.147147,0.261905,0.495779,Low,High,Yes,0.666667,0.24,Medium,Yes,0.333333,Medium,High,Public,Negative,0.5,No,College,Near,Female,0.238095,5
0.148148,0.52381,0.475,High,High,Yes,0.666667,0.64,Low,Yes,0.5,Medium,Medium,Public,Negative,0.5,Yes,Postgraduate,Moderate,Female,0.261905,4
0.149149,0.5,0.875,Medium,High,Yes,0.333333,0.38,Medium,Yes,0.166667,Low,Medium,Public,Positive,0.5,No,College,Near,Female,0.333333,10
0.15015,0.5,0.575,Medium,High,Yes,0.166667,0.64,Medium,Yes,0.333333,Low,High,Public,Positive,0.5,No,Postgraduate,Near,Female,0.309524,5
0.151151,0.5,0.675,High,High,No,0.166667,0.6,Low,Yes,0.333333,Low,High,Public,Negative,0.5,No,'High School',Near,Female,0.285714,9
0.152152,0.357143,0.8,Medium,High,Yes,0.166667,0.7,Low,Yes,0.166667,Low,Medium,Public,Neutral,0.333333,No,'High School',Moderate,Male,0.238095,2
0.153153,0.47619,0.65,Low,Medium,Yes,0.166667,0.02,Medium,Yes,0.333333,Low,High,Public,Positive,0.333333,No,'High School',Moderate,Female,0.214286,6
0.154154,0.5,0.4,Medium,Medium,Yes,0.666667,0.84,Medium,Yes,0.166667,Low,High,Public,Neutral,0.666667,No,'High School',Near,Female,0.238095,9
0.155155,0.357143,0.525,Medium,Medium,Yes,0.666667,0.48,Medium,Yes,0.5,Medium,Medium,Public,Positive,0.333333,No,Postgraduate,Near,Female,0.238095,10
0.156156,0.714286,0.8,Medium,Medium,Yes,0,0.52,Medium,Yes,0.333333,Medium,High,Public,Positive,0.666667,Yes,'High School',Far,Male,0.333333,5
0.157157,0.52381,0.375,Low,High,No,0.333333,0.42,Low,Yes,0,Medium,Medium,Public,Neutral,0.333333,No,College,Near,Male,0.166667,6
0.158158,0.285714,0.4,Medium,High,No,0.166667,0.98,Low,Yes,0.333333,Medium,Medium,Private,Positive,0.666667,No,'High School',Near,Female,0.190476,10
0.159159,0.547619,0.1,Medium,Medium,Yes,0.666667,0.8,High,Yes,0,Low,High,Public,Negative,0.5,No,'High School',Near,Male,0.166667,4
0.16016,0.309524,0.925,Medium,Medium,Yes,0.333333,0.32,Medium,Yes,0.333333,Medium,Medium,Public,Negative,0.5,Yes,College,Near,Female,0.214286,5
0.161161,0.571429,0.1,Medium,High,No,0.166667,0.78,Low,Yes,0.333333,Medium,Medium,Public,Neutral,0.666667,No,College,Far,Male,0.190476,8
0.162162,0.619048,0.65,Medium,Medium,No,0.5,0.44,Low,Yes,0.166667,Medium,High,Public,Positive,0.666667,No,'High School',Far,Male,0.261905,1
0.163163,0.333333,0.425,Medium,Medium,Yes,0.666667,0.88,Low,Yes,0,High,High,Public,Positive,0.5,No,College,Moderate,Male,0.190476,1
0.164164,0.595238,0.4,Medium,High,Yes,0.333333,0.04,Medium,Yes,0.666667,High,Low,Public,Neutral,0.5,No,'High School',Near,Male,0.261905,10
0.165165,0.5,0.675,High,Low,Yes,0.5,0.36,Medium,No,0,Low,Medium,Public,Neutral,0.333333,No,'High School',Near,Male,0.214286,4
0.166166,0.571429,0.075,High,Medium,Yes,0.333333,0.42,Medium,Yes,0.166667,Medium,Low,Private,Positive,0.5,No,'High School',Near,Male,0.190476,10
0.167167,0.714286,0.6,Medium,Medium,Yes,0.833333,0.74,Medium,Yes,0.333333,Low,Medium,Private,Neutral,0.5,No,College,Far,Male,0.309524,3
0.168168,0.428571,0.775,High,Low,No,0.333333,0.18,Medium,Yes,0.833333,Medium,High,Public,Neutral,0.666667,No,College,Moderate,Male,0.285714,5
0.169169,0.333333,0.825,High,Medium,No,0.333333,0.28,Medium,Yes,0.333333,Medium,High,Public,Positive,0.666667,No,Postgraduate,Near,Male,0.309524,10
0.17017,0.333333,0.175,Medium,Medium,Yes,0.5,0.72,High,Yes,0.166667,High,Medium,Private,Positive,0.5,No,Postgraduate,Near,Male,0.190476,8
0.171171,0.333333,0.9,Medium,Medium,No,0.5,0.08,High,No,0.5,Medium,High,Public,Negative,0.333333,No,'High School',Near,Male,0.214286,1
0.172172,0.452381,0.65,High,Low,No,0.666667,0.2,Medium,Yes,0.166667,Medium,Medium,Public,Neutral,0.666667,Yes,College,Far,Female,0.190476,5
0.173173,0.5,0.875,Medium,High,No,0.833333,0.76,Low,Yes,0,Low,High,Public,Positive,0.333333,No,Postgraduate,Near,Male,0.333333,5
0.174174,0.5,0.475,Medium,Medium,No,0.833333,0.88,Medium,Yes,0.166667,Medium,Medium,Public,Positive,0.5,No,'High School',Near,Male,0.238095,2
0.175175,0.571429,0.55,Medium,Medium,No,0.333333,0.72,Medium,No,0.5,Low,High,Public,Positive,0.5,No,'High School',Near,Female,0.261905,5
0.176176,0.452381,0.925,Medium,Medium,Yes,0.5,0.52,Low,Yes,0.333333,Low,Low,Private,Positive,0.5,No,Postgraduate,Near,Male,0.309524,8
0.177177,0.666667,0.9,Medium,Medium,Yes,0.833333,0.1,Low,No,0,Medium,Medium,Public,Neutral,0.333333,No,Postgraduate,Far,Female,0.285714,10
0.178178,0.404762,0.45,Medium,Medium,No,0.833333,0.82,High,Yes,0.333333,High,Low,Public,Neutral,0.666667,No,College,Far,Female,0.214286,7
0.179179,0.833333,0.275,Medium,Medium,Yes,0.490582,0.12,Medium,Yes,0.333333,High,Medium,Public,Positive,0.333333,No,'High School',Far,Male,0.261905,2
0.18018,0.547619,0.4,Low,High,No,0.666667,0.38,Low,Yes,0.333333,Medium,Medium,Public,Neutral,0.166667,No,'High School',Moderate,Male,0.166667,6
0.181181,0.333333,0.4,High,High,No,0.666667,0.06,Medium,Yes,0.166667,Low,Medium,Public,Neutral,0.666667,No,College,Near,Male,0.166667,10
0.182182,0.309524,0.275,Medium,Medium,Yes,0.666667,0.7,Low,Yes,0.333333,Medium,High,Public,Neutral,0.666667,No,'High School',Near,Male,0.142857,1
0.183183,0.52381,0.275,Low,Low,Yes,0.833333,0.5,Low,Yes,0.166667,Low,Medium,Public,Negative,0.333333,No,College,Near,Male,0.119048,10
0.184184,0.428571,0.85,Low,Medium,Yes,0.166667,0.9,Medium,Yes,0.5,Low,Medium,Public,Positive,0.333333,No,'High School',Moderate,Male,0.261905,10
0.185185,0.547619,0.075,Medium,Low,Yes,0.333333,0.14,Medium,Yes,0.166667,Low,High,Private,Neutral,0.833333,No,College,Near,Female,0.142857,3
0.186186,0.52381,0.675,High,High,Yes,0.666667,0.82,High,Yes,0,High,Medium,Private,Positive,0.5,No,'High School',Moderate,Male,0.333333,6
0.187187,0.452381,0.175,Low,Medium,Yes,0.5,0.52,Medium,Yes,0,Medium,Medium,Public,Neutral,0.666667,No,'High School',Near,Male,0.119048,9
0.188188,0.333333,0.35,Low,High,Yes,0,0.36,Low,Yes,0.5,Low,Medium,Public,Positive,0.5,No,'High School',Near,Female,0.142857,1
0.189189,0.238095,0.05,Medium,High,Yes,0.166667,0.64,Medium,Yes,0.5,High,Medium,Private,Neutral,0.666667,No,College,Moderate,Male,0.142857,6
0.19019,0.380952,0.275,Medium,Medium,Yes,0.666667,0.8,Medium,Yes,0.833333,Medium,Medium,Public,Positive,0.166667,No,Postgraduate,Far,Male,0.214286,2
0.191191,0.571429,0.775,Medium,Medium,No,0.666667,0.44,Low,Yes,0.333333,Medium,High,Public,Positive,0,No,Postgraduate,Near,Male,0.309524,9
0.192192,0.47619,0.875,Medium,Medium,No,0.166667,0.24,High,Yes,0.166667,Medium,Low,Public,Positive,0.666667,No,'High School',Near,Male,0.285714,2
0.193193,0.285714,0.225,Medium,Low,Yes,0.833333,0.92,Low,Yes,0,High,Medium,Private,Neutral,0.666667,No,'High School',Far,Female,0.071429,3
0.194194,0.47619,0.475,Medium,High,Yes,0.5,0.32,Low,Yes,0.333333,Low,Medium,Public,Negative,0.666667,No,College,Moderate,Male,0.214286,2
0.195195,0.5,0.475,High,Medium,No,0.166667,1,Medium,Yes,0.666667,High,High,Public,Negative,0.5,No,College,Near,Male,0.333333,4
0.196196,0.333333,0.875,Low,Low,Yes,0.333333,0.76,Low,Yes,0.166667,Low,Medium,Public,Negative,0.833333,No,'High School',Near,Male,0.190476,4
0.197197,0.47619,0.775,Medium,High,Yes,0.166667,0.68,Medium,Yes,0.166667,High,Low,Public,Neutral,0.333333,No,'High School',Near,Male,0.285714,10
0.198198,0.452381,0.525,Medium,Medium,Yes,0.333333,0.02,High,No,0.5,Medium,Medium,Public,Neutral,0.666667,Yes,'High School',Near,Male,0.214286,1
0.199199,0.285714,0.675,High,Low,Yes,0,0.44,Medium,Yes,0.333333,Medium,High,Public,Neutral,0.5,No,'High School',Moderate,Female,0.214286,8
0.2002,0.5,0.85,Low,Medium,Yes,0.5,0.5,High,Yes,0.333333,High,Medium,Public,Neutral,0.333333,No,College,Near,Female,0.309524,?
0.201201,0.52381,0,High,Medium,Yes,0.666667,0.38,Medium,Yes,0.166667,Low,Medium,Private,Positive,0.666667,No,College,Near,Male,0.190476,8
0.202202,0.595238,0.4,Medium,Medium,Yes,0.166667,0.14,Medium,Yes,0.166667,Medium,Medium,Public,Positive,0.666667,No,'High School',Near,Male,0.238095,6
0.203203,0.595238,0.9,Medium,Medium,Yes,0.5,0.36,Medium,Yes,0.5,High,Medium,Private,Positive,0.5,No,College,Near,Female,0.380952,2
0.204204,0.261905,0.75,Medium,Low,Yes,0.333333,0.08,Medium,No,0.166667,High,Medium,Public,Neutral,0.5,No,'High School',Near,Male,0.142857,7
0.205205,0.309524,0.55,Medium,Medium,No,0.666667,0.3,Medium,Yes,0.166667,Low,Medium,Private,Positive,0.5,No,College,Near,Male,0.166667,10
0.206206,0.52381,0.525,Low,Medium,Yes,0,0.08,Medium,Yes,0.166667,Low,Medium,Public,Neutral,0.5,No,College,Near,Male,0.190476,9
0.207207,0.52381,0.35,Medium,High,Yes,0.666667,0.76,Low,Yes,0,Medium,High,Public,Negative,0.5,Yes,'High School',Near,Male,0.190476,7
0.208208,0.52381,0.525,Medium,Low,No,0,0.68,Medium,Yes,0.333333,Medium,Medium,Public,Positive,0.833333,No,'High School',Near,Male,0.238095,5
0.209209,1,0.65,High,Medium,Yes,0.5,0.94,Medium,Yes,0.333333,Medium,High,Public,Positive,0.166667,No,'High School',Near,Female,0.47619,4
0.21021,0.52381,0.425,Medium,High,Yes,0.333333,0.38,Low,Yes,0.166667,Medium,Medium,Private,Positive,0.333333,No,'High School',Moderate,Female,0.214286,8
0.211211,0.619048,0.725,Medium,High,Yes,0.333333,0.78,Medium,Yes,0.5,Medium,Medium,Private,Positive,0.5,No,'High School',Near,Male,0.380952,6
0.212212,0.595238,0.85,Medium,High,No,0.166667,0.58,High,Yes,0.166667,Low,High,Public,Positive,0.333333,No,Postgraduate,Near,Male,0.380952,5
0.213213,0.547619,0.15,Medium,Low,No,0.833333,0.64,Low,Yes,0.166667,Medium,Medium,Public,Neutral,0.333333,Yes,'High School',Near,Female,0.095238,7
0.214214,0.404762,0.45,High,Medium,Yes,0.166667,0.54,Medium,No,0.333333,Medium,Medium,Public,Neutral,0.666667,No,'High School',Far,Male,0.190476,3
0.215215,0.571429,0.4,Medium,Medium,Yes,0.166667,0.78,High,Yes,0.5,Medium,High,Public,Neutral,0.5,No,'High School',Far,Female,0.261905,9
0.216216,0.333333,0.675,Medium,High,Yes,1,0.04,Medium,Yes,0.333333,Low,High,Private,Positive,0.5,No,College,Near,Male,0.220989,4
0.217217,0.428571,0.25,Medium,Low,No,0.5,0.08,High,Yes,0,Medium,Medium,Public,Positive,0.333333,Yes,'High School',Moderate,Male,0.738095,4
0.218218,0.380952,0.65,High,Low,No,0.166667,0.1,Low,No,0.333333,Medium,Medium,Private,Neutral,0.666667,No,College,Near,Male,0.190476,8
0.219219,0.452381,0.875,Low,Medium,Yes,0.5,0.28,Low,No,0.333333,Medium,High,Public,Neutral,0.5,No,'High School',Near,Female,0.220989,6
0.22022,0.785714,0.425,Medium,Low,Yes,0.5,0.6,Low,Yes,0,Medium,Medium,Public,Positive,0.5,No,'High School',Near,Male,0.261905,1
0.221221,0.190476,0.9,Medium,Medium,Yes,0,0.64,High,No,0,Low,Medium,Public,Positive,0.666667,No,College,Near,Male,0.214286,2
0.222222,0.547619,1,High,High,Yes,0.333333,0.72,Low,Yes,0.333333,Medium,Medium,Private,Positive,0.833333,No,'High School',Near,Male,0.404762,9
0.223223,0.214286,0.495779,Medium,High,No,0.5,0.28,High,Yes,0,Medium,Medium,Public,Positive,0.666667,Yes,'High School',Moderate,Female,0.047619,6
0.224224,0.380952,0.225,High,Medium,Yes,0.833333,0.66,Medium,Yes,0.333333,Medium,High,Private,Positive,0.666667,Yes,College,Moderate,Female,0.190476,7
0.225225,0.619048,0.95,Low,High,Yes,0.5,0.12,Low,Yes,0.166667,High,Medium,Private,Positive,0.5,No,College,Near,Female,0.357143,9
0.226226,0.452381,0.95,Medium,Low,No,0.5,0,Low,Yes,0.252798,Medium,High,Private,Neutral,0.333333,No,'High School',Near,Female,0.238095,3
0.227227,0.309524,0.1,Medium,Medium,Yes,0.333333,0.7,Medium,Yes,0,Medium,Medium,Public,Neutral,0.5,No,'High School',Near,Male,0.095238,5
0.228228,0.357143,0.025,Medium,Medium,No,0.833333,0.72,Low,Yes,0.333333,Low,High,Public,Positive,0.333333,No,'High School',Near,Male,0.095238,5
0.229229,0.547619,0.15,High,Low,Yes,0.666667,0.62,High,Yes,0.166667,Medium,Medium,Public,Neutral,0.666667,No,'High School',Far,Male,0.166667,10
0.23023,0.357143,1,High,Low,Yes,0.666667,0.26,High,Yes,0.333333,Low,Medium,Public,Negative,0.5,No,'High School',Moderate,Male,0.261905,7
0.231231,0.47619,0.175,Medium,Medium,No,0.5,0.92,Low,Yes,0.5,Low,Medium,Public,Neutral,0.333333,No,'High School',Far,Female,0.142857,2
0.232232,0.452381,0.5,Medium,High,No,0.166667,0.88,Medium,Yes,0,Low,Low,Private,Positive,0.666667,Yes,Postgraduate,Moderate,Female,0.214286,4
0.233233,0.357143,0.85,High,High,Yes,0.833333,0.52,Medium,Yes,0,Low,High,Public,Neutral,0.333333,No,'High School',Near,Male,0.285714,4
0.234234,0.761905,0.025,Medium,Medium,No,0.5,0.98,High,Yes,0.333333,Medium,High,Public,Neutral,0.5,No,College,Near,Female,0.285714,8
0.235235,0.547619,0.6,High,Low,No,0.5,0.3,Low,Yes,0.5,Medium,High,Public,Positive,0.5,No,'High School',Near,Female,0.261905,10
0.236236,0.166667,0.275,High,Low,No,0.666667,0.5,Medium,Yes,0,Medium,High,Public,Positive,0.5,No,'High School',Near,Male,0.071429,3
0.237237,0.47619,0.85,Medium,Medium,No,0.5,0.92,Low,Yes,0,Medium,Medium,Private,Neutral,0.333333,Yes,Postgraduate,Moderate,Male,0.261905,2
0.238238,0.357143,0.275,High,Medium,Yes,0.166667,0.46,Medium,Yes,0.166667,Medium,Medium,Public,Neutral,0,Yes,'High School',Near,Male,0.119048,9
0.239239,0.571429,0.675,Medium,Low,Yes,0.5,0.48,Low,Yes,0,Medium,High,Public,Neutral,0.666667,Yes,'High School',Near,Male,0.214286,4
0.24024,0.333333,0.675,Low,Medium,No,0,0.08,Medium,Yes,0.166667,Medium,Medium,Public,Neutral,1,No,'High School',Moderate,Male,0.166667,9
0.241241,0.428571,0.225,Medium,Medium,Yes,0.5,0.22,High,Yes,0.5,High,High,Public,Neutral,0.666667,No,'High School',Moderate,Male,0.190476,6
0.242242,0.52381,0.025,Low,Medium,No,0.833333,0.16,Medium,Yes,0.666667,Medium,Medium,Public,Neutral,0.505735,No,'High School',Near,Male,0.119048,1
0.243243,0.571429,0.4,Medium,High,Yes,0,0.56,Medium,Yes,0.333333,Medium,Medium,Private,Negative,0.5,No,'High School',Moderate,Female,0.238095,3
0.244244,0.285714,0.3,High,High,No,0.5,0.32,Medium,Yes,0,Low,High,Public,Neutral,0.666667,No,Postgraduate,Near,Male,0.166667,7
0.245245,0.404762,0.8,Low,Medium,Yes,0.666667,0.08,Medium,Yes,0.166667,Medium,Medium,Public,Positive,0.5,No,'High School',Near,Male,0.214286,9
0.246246,0.380952,0.8,Low,Low,Yes,0.490582,0.5,Medium,Yes,0.333333,Medium,High,Public,Neutral,0.5,No,Postgraduate,Near,Female,0.238095,8
0.247247,0.357143,0.45,Medium,High,No,0.333333,0.66,Medium,Yes,0,Low,Low,Public,Neutral,0.5,Yes,College,Near,Male,0.142857,5
0.248248,0.714286,0.6,Medium,Medium,No,0.166667,0.74,High,Yes,0,Medium,Medium,Private,Positive,0.5,No,College,Moderate,Male,0.309524,8
0.249249,0.5,0.6,Medium,Medium,Yes,0.333333,0.503387,Low,Yes,0,Medium,Medium,Public,Neutral,0.833333,No,'High School',Near,Female,0.261905,2
0.25025,0.261905,0.825,Medium,Medium,Yes,0.833333,0.503387,Low,Yes,0.166667,Medium,Medium,Public,Neutral,0.5,No,Postgraduate,Moderate,Male,0.214286,3
0.251251,0.595238,0.425,Low,Medium,No,0,0.4,Low,Yes,0.333333,High,Medium,Public,Neutral,0.5,Yes,College,Moderate,Female,0.166667,8
0.252252,0.761905,0.275,Low,Medium,No,0.166667,0.68,Medium,Yes,0.166667,Medium,Medium,Public,Positive,0.333333,No,'High School',Near,Male,0.238095,9
0.253253,0.595238,0.275,High,Medium,Yes,0.333333,0.02,Low,No,0.166667,High,Medium,Private,Positive,0.5,No,Postgraduate,Near,Male,0.214286,10
0.254254,0.238095,0.525,Medium,Medium,Yes,0.333333,0.64,High,Yes,0.5,Medium,High,Public,Neutral,0.666667,No,'High School',Near,Male,0.214286,8
0.255255,0.380952,0.45,Medium,High,Yes,0.5,0.4,Medium,No,0.333333,Low,High,Public,Positive,0.5,No,'High School',Near,Male,0.190476,4
0.256256,0.642857,0.45,High,Medium,No,0.833333,0.46,High,Yes,0.333333,Medium,Medium,Public,Neutral,0.666667,No,College,Moderate,Female,0.285714,6
0.257257,0.357143,0.1,High,Low,Yes,0.166667,0.3,Medium,Yes,0.5,Medium,High,Private,Positive,0.666667,No,Postgraduate,Moderate,Female,0.166667,5
0.258258,0.52381,0.725,Low,Low,Yes,0.5,0.12,Low,Yes,0.666667,Medium,Low,Private,Positive,0.666667,No,Postgraduate,Near,Female,0.261905,4
0.259259,0.571429,0.225,Medium,Medium,Yes,0.5,0.4,Low,No,0.166667,High,High,Public,Positive,0.666667,No,'High School',Far,Female,0.166667,9
0.26026,0.309524,0.2,High,Medium,No,0.333333,0.3,Medium,Yes,0.166667,High,Medium,Public,Neutral,0.5,Yes,College,Near,Male,0.119048,10
0.261261,0.452381,0.425,Medium,Medium,No,0.166667,0.96,Low,Yes,0.333333,Low,High,Private,Neutral,0.333333,No,Postgraduate,Far,Female,0.214286,?
0.262262,0,0.225,High,Medium,Yes,0.333333,0.94,Medium,Yes,0.166667,Low,Medium,Public,Positive,0.5,No,'High School',Near,Female,0.071429,1
0.263263,0.309524,0.575,Medium,Low,Yes,0.333333,0.64,Medium,Yes,0,Medium,Medium,Public,Positive,0.333333,No,'High School',Near,Female,0.166667,7
0.264264,0.404762,0.375,Low,High,Yes,0.666667,0.9,Medium,Yes,0.166667,Low,Low,Public,Neutral,0.333333,No,College,Near,Female,0.190476,10
0.265265,0.285714,0.45,Medium,High,Yes,0.666667,0.503387,High,Yes,0,High,Low,Public,Neutral,0.5,No,College,Near,Male,0.190476,8
0.266266,0.690476,0.525,Medium,Medium,Yes,0.166667,0.34,Medium,Yes,0.166667,High,High,Public,Negative,0.166667,No,'High School',Near,Male,0.261905,3
0.267267,0.238095,0.2,Medium,Medium,No,0.490582,0.6,Medium,Yes,0.333333,Medium,Medium,Public,Positive,0.5,No,College,Moderate,Female,0.119048,3
0.268268,0.380952,0.15,Low,High,No,0.333333,0.22,Medium,Yes,0.166667,High,Medium,Public,Positive,1,No,Postgraduate,Near,Male,0.166667,6
0.269269,0.47619,0.875,Low,Low,No,1,0.68,Low,Yes,0,High,Medium,Public,Neutral,0.666667,Yes,'High School',Near,Male,0.214286,2
0.27027,0.666667,0.425,High,High,Yes,0.5,0.04,Medium,Yes,0.333333,High,Medium,Public,Negative,0.5,Yes,'High School',Near,Female,0.261905,6
0.271271,0.238095,0.4,Low,Medium,Yes,0.166667,0.84,Medium,Yes,0.666667,Medium,Low,Public,Negative,0.333333,No,Postgraduate,Near,Male,0.166667,5
0.272272,0.619048,0.025,Medium,Medium,No,0.333333,0.58,Medium,Yes,0.166667,Low,Medium,Public,Positive,0.5,No,'High School',Moderate,Male,0.166667,7
0.273273,0.452381,0.5,High,Low,Yes,0.333333,0.06,Medium,Yes,0,Low,Medium,Public,Neutral,0.333333,No,College,Moderate,Male,0.166667,9
0.274274,0.309524,0.55,Medium,High,Yes,0.666667,0.88,Low,Yes,0.333333,Low,High,Public,Negative,0.833333,No,College,Far,Female,0.214286,9
0.275275,0.52381,0.55,Low,Medium,Yes,0.666667,0.88,Medium,Yes,0.166667,Medium,Medium,Public,Negative,0.333333,Yes,'High School',Near,Male,0.190476,1
0.276276,0.47619,0.7,Medium,High,No,0.5,0.86,Medium,Yes,0.666667,Low,Medium,Public,Positive,0.5,No,'High School',Near,Female,0.333333,7
0.277277,0.357143,0.175,Medium,High,No,0.5,0.78,High,Yes,0.5,Low,Medium,Public,Positive,0.5,No,College,Near,Male,0.190476,3
0.278278,0.452381,0.25,Medium,Medium,Yes,0.5,0.68,Low,No,0.333333,Medium,High,Private,Neutral,0.666667,No,College,Far,Male,0.166667,4
0.279279,0.455896,0.8,High,Medium,Yes,0.5,0.4,Medium,Yes,0.166667,Low,Medium,Public,Neutral,0.5,No,'High School',Moderate,Male,0.261905,2
0.28028,0.47619,0.95,Medium,Low,No,0,0.14,Medium,Yes,0.333333,High,Low,Public,Positive,0.333333,No,'High School',Near,Female,0.238095,1
0.281281,0.547619,0.125,Medium,Low,No,0.5,0.28,Low,Yes,0.166667,High,Medium,Public,Neutral,0.166667,No,Postgraduate,Near,Male,0.142857,10
0.282282,0.690476,0.5,Low,High,No,0.333333,0.34,Medium,Yes,0.5,Medium,Medium,Public,Negative,0.666667,No,College,Moderate,Female,0.261905,3
0.283283,0.285714,0.225,Medium,Low,Yes,0.166667,0.36,Low,Yes,0,High,Medium,Public,Positive,0.166667,Yes,'High School',Moderate,Female,0.02381,10
0.284284,0.761905,0.05,High,Medium,Yes,1,0.56,Medium,Yes,0,Medium,Medium,Private,Positive,0.5,No,'High School',Moderate,Female,0.238095,9
0.285285,0.166667,0.325,Medium,Medium,No,0.5,0.2,Medium,No,0,High,Medium,Private,Neutral,0.5,No,'High School',Near,Female,0.047619,1
0.286286,0.428571,0.15,Medium,High,No,0.5,0.18,Medium,Yes,0.166667,High,Medium,Public,Negative,0.5,No,'High School',Far,Male,0.095238,3
0.287287,0.547619,0.7,Low,Medium,Yes,0.333333,0.72,Low,Yes,0,Low,Low,Public,Negative,0.5,No,College,Near,Male,0.214286,5
0.288288,0.5,0.525,Low,High,Yes,0.666667,0,High,Yes,0.666667,Medium,Medium,Private,Positive,0.833333,No,'High School',Far,Female,0.238095,3
0.289289,0.357143,0.15,Medium,High,Yes,0.166667,0.14,High,Yes,0.5,Medium,Medium,Public,Positive,0.5,No,'High School',Moderate,Female,0.142857,4
0.29029,0.428571,0,Medium,High,Yes,0.5,0.44,High,Yes,0.5,Low,High,Public,Positive,0.5,No,'High School',Moderate,Female,0.166667,4
0.291291,0.380952,0.8,Low,Low,Yes,0.333333,0.14,Medium,Yes,0.333333,Medium,Medium,Private,Positive,0.333333,Yes,'High School',Moderate,Female,0.166667,1
0.292292,0.357143,0.175,High,Medium,No,0.666667,0.96,Medium,Yes,0,Low,Low,Public,Neutral,0.5,No,'High School',Near,Female,0.119048,6
0.293293,0.571429,0.6,Medium,Low,Yes,0.333333,0.68,Low,Yes,0.333333,Medium,High,Public,Positive,0.5,No,'High School',Near,Male,0.285714,7
0.294294,0.5,0.325,Low,Medium,Yes,0.833333,0.44,Low,Yes,0.5,Medium,Medium,Public,Positive,0.5,No,'High School',Near,Female,0.190476,7
0.295295,0.357143,0.575,Medium,High,Yes,0.5,0.12,Low,Yes,0.666667,High,Medium,Public,Positive,0.5,No,'High School',Near,Female,0.238095,6
0.296296,0.571429,0.325,Low,Low,No,0.666667,0.38,Medium,Yes,0.5,Medium,Medium,Private,Positive,0.5,No,'High School',Near,Female,0.190476,7
0.297297,0.5,0.075,Low,Low,No,0.666667,0.66,Medium,Yes,0.5,Medium,Medium,Private,Negative,0.166667,No,College,Near,Male,0.119048,3
0.298298,0.571429,0.225,High,Medium,Yes,0.833333,0.96,Medium,Yes,0.166667,Low,Medium,Public,Negative,0.5,Yes,College,Moderate,Female,0.190476,5
0.299299,0.547619,0.2,Medium,Medium,Yes,0.333333,0.48,Medium,Yes,0.166667,Medium,Medium,Public,Neutral,0.5,No,'High School',Near,Female,0.166667,7
0.3003,0.333333,0.425,Medium,Medium,Yes,0.666667,0.7,High,Yes,0.166667,Low,Medium,Public,Positive,0.333333,No,Postgraduate,Moderate,Male,0.190476,10
0.301301,0.380952,0.65,High,Low,Yes,0,0.2,High,Yes,0.333333,High,Low,Private,Positive,0.5,Yes,College,Moderate,Female,0.214286,5
0.302302,0.547619,0.275,Medium,Medium,Yes,0.5,0.62,Medium,Yes,0,Low,Medium,Private,Positive,0.5,No,'High School',Near,Male,0.190476,10
0.303303,0.547619,0,Low,Medium,No,0.333333,0.24,High,Yes,0.666667,Low,High,Public,Negative,0.5,No,'High School',Near,Female,0.119048,2
0.304304,0.452381,0.525,Medium,Medium,Yes,0.490582,0.2,Low,Yes,0.5,Medium,Medium,Public,Positive,0.666667,Yes,'High School',Near,Male,0.190476,6
0.305305,0.47619,0.6,Medium,Medium,No,0.333333,0.5,Low,No,0.166667,High,Medium,Public,Positive,0.5,No,College,Moderate,Male,0.214286,7
0.306306,0.642857,0.975,Medium,Medium,Yes,0.333333,0.22,Medium,No,0.166667,Low,Medium,Public,Positive,0.5,No,'High School',Near,Male,0.309524,2
0.307307,0.357143,0.6,Medium,High,Yes,0.5,0.72,Medium,Yes,0.166667,Low,Medium,Private,Neutral,0.333333,No,'High School',Near,Female,0.214286,10
0.308308,0.52381,0.475,Medium,High,Yes,0.333333,0.94,Medium,Yes,0.166667,High,Low,Public,Neutral,0.666667,No,'High School',Moderate,Male,0.261905,8
0.309309,0.428571,0.575,Medium,Medium,Yes,0.5,0.4,Medium,Yes,0.333333,Low,Medium,Public,Negative,0.666667,Yes,Postgraduate,Near,Female,0.214286,5
0.31031,0.428571,0.925,High,Medium,Yes,0.333333,0.32,High,Yes,0.333333,Medium,Medium,Private,Positive,0.333333,No,College,Moderate,Female,0.333333,8
0.311311,0.619048,0.825,Medium,Low,No,0.333333,0.18,High,Yes,0.333333,Low,Medium,Private,Negative,0.666667,No,'High School',Near,Female,0.285714,3
0.312312,0.571429,0.325,Medium,High,Yes,0.5,0.4,Low,Yes,0,Low,Medium,Private,Neutral,0.666667,No,Postgraduate,Moderate,Male,0.214286,2
0.313313,0.571429,0.225,Low,High,Yes,0.5,0.56,Medium,Yes,0,Low,High,Public,Negative,0.5,No,'High School',Far,Female,0.142857,7
0.314314,0.642857,0.275,Medium,Medium,No,0.666667,0.38,High,Yes,0.166667,Medium,High,Private,Neutral,0.166667,No,College,Moderate,Female,0.214286,5
0.315315,0.452381,0.5,Low,High,No,0.666667,0.62,Medium,Yes,0.5,Medium,Medium,Private,Negative,0.666667,No,Postgraduate,Near,Male,0.261905,5
0.316316,0.547619,0.75,Low,Medium,No,0.5,0.66,Medium,Yes,0,Low,Medium,Private,Positive,0.5,No,College,Near,Male,0.238095,8
0.317317,0.404762,0.5,Medium,Medium,No,0.666667,0.1,Low,Yes,0.333333,Low,Low,Public,Neutral,0.5,No,'High School',Moderate,Male,0.119048,9
0.318318,0.5,0.075,Medium,High,Yes,0.5,0.7,Medium,Yes,0.666667,High,High,Public,Negative,0.5,No,College,Near,Female,0.238095,8
0.319319,0.428571,0.725,High,Medium,Yes,0.5,0.9,Medium,Yes,0,Medium,Medium,Public,Positive,0.5,No,'High School',Near,Male,0.285714,10
0.32032,0.47619,0.8,Medium,Low,Yes,0.666667,0.02,Low,Yes,0,Medium,Medium,Public,Neutral,0.333333,No,College,Moderate,Male,0.190476,2
0.321321,0.547619,0.3,High,High,No,0.333333,0.56,High,Yes,0,Low,High,Public,Negative,1,No,'High School',Near,Female,0.238095,10
0.322322,0.333333,0.675,High,Low,Yes,0,0.6,High,Yes,0,Low,Medium,Private,Positive,0.5,No,College,Near,Male,0.214286,7
0.323323,0.761905,0.425,Low,High,Yes,0.166667,0.7,Medium,Yes,0,Low,Medium,Private,Neutral,0.833333,No,'High School',Far,Female,0.261905,5
0.324324,0.309524,0.9,Medium,Low,Yes,0.833333,0.38,High,Yes,0,Medium,Medium,Private,Negative,0.5,Yes,College,Near,Female,0.190476,7
0.325325,0.285714,0.495779,Medium,Medium,Yes,0.5,0.82,Medium,Yes,0.5,Low,Medium,Public,Positive,0.5,No,'High School',Near,Male,0.238095,3
0.326326,0.619048,0.525,Medium,Medium,Yes,0.5,0.54,Medium,Yes,0.333333,Medium,Low,Public,Neutral,0.333333,Yes,Postgraduate,Moderate,Female,0.261905,4
0.327327,0.571429,0.7,Medium,Medium,Yes,0.5,0.4,Low,Yes,0.166667,Medium,Medium,Private,Positive,0.5,No,Postgraduate,Moderate,Male,0.285714,7
0.328328,0.547619,0.875,Medium,High,Yes,0.666667,0.72,High,Yes,0.166667,Medium,High,Private,Neutral,0.5,No,College,Near,Male,0.380952,2
0.329329,0.547619,0.5,Medium,High,Yes,0.5,0.92,High,Yes,0,Low,High,Public,Positive,0,No,College,Moderate,Female,0.285714,2
0.33033,0.452381,0.325,Medium,Medium,Yes,0.5,0.82,Low,Yes,0.166667,Medium,High,Public,Neutral,0.333333,No,Postgraduate,Moderate,Male,0.190476,1
0.331331,0.333333,0.75,High,Medium,Yes,0.666667,0.94,Medium,Yes,0.166667,Low,High,Private,Negative,0.5,No,College,Near,Female,0.261905,1
0.332332,0.452381,0.225,Medium,High,No,0.333333,0.26,Low,Yes,0,Low,Medium,Public,Negative,0.5,No,Postgraduate,Near,Male,0.142857,1
0.333333,0.357143,0.4,Low,High,Yes,0.666667,0.12,Medium,No,0.166667,Low,Medium,Public,Positive,0.166667,No,'High School',Near,Male,0.095238,6
0.334334,0.595238,0.875,Low,High,No,0.5,0.54,Medium,Yes,0,Medium,Medium,Public,Neutral,0.5,No,'High School',Moderate,Female,0.285714,5
0.335335,0.428571,0.725,High,Medium,Yes,0.5,0.04,Medium,Yes,0.333333,Medium,Medium,Public,Positive,0.666667,No,'High School',Moderate,Male,0.238095,10
0.336336,0.333333,0.4,Medium,Medium,Yes,0.333333,0.68,Low,Yes,0,Medium,High,Public,Neutral,0.5,No,College,Near,Female,0.166667,8
0.337337,0.404762,0.225,High,High,No,0.5,0.24,Low,Yes,0.5,Medium,Medium,Public,Positive,0.5,No,'High School',Moderate,Male,0.166667,5
0.338338,0.5,0.35,High,High,Yes,0.333333,0.46,Low,Yes,0.5,High,High,Public,Positive,0.666667,No,Postgraduate,Moderate,Female,0.309524,1
0.339339,0.380952,0.275,High,Medium,Yes,0.833333,0.66,Low,Yes,0.333333,Medium,Medium,Public,Neutral,0.833333,No,'High School',Near,Male,0.190476,8
0.34034,0.333333,0.175,Medium,Medium,No,0,0.48,Medium,Yes,0,Low,Medium,Public,Negative,0.5,No,College,Moderate,Male,0.071429,6
0.341341,0.47619,0.75,Low,Medium,Yes,0.666667,0.24,Low,Yes,0.333333,Medium,High,Public,Negative,0.833333,Yes,'High School',Near,Male,0.214286,8
0.342342,0.47619,0.25,Low,High,Yes,0,0.88,Medium,Yes,0,Low,High,Private,Neutral,0.333333,No,College,Far,Male,0.166667,2
0.343343,0.380952,0.45,Medium,High,No,0.666667,0.76,Medium,Yes,0,Low,Medium,Public,Negative,0.5,No,'High School',Near,Female,0.166667,10
0.344344,0.380952,0.375,Medium,High,Yes,0.333333,0.6,Medium,No,0.166667,Low,Medium,Private,Positive,0.833333,No,'High School',Moderate,Male,0.166667,8
0.345345,0.47619,0.975,Medium,Medium,No,0.666667,0.503387,High,Yes,0.666667,Medium,Medium,Public,Positive,0.666667,No,'High School',Moderate,Male,0.357143,6
0.346346,0.238095,0.4,Medium,Medium,Yes,0.5,0.42,Medium,No,0.166667,Medium,Low,Public,Neutral,0.333333,No,College,Near,Male,0.095238,1
0.347347,0.261905,0.075,Medium,High,Yes,0.166667,0.38,Low,Yes,0,Medium,High,Public,Negative,0.333333,No,'High School',Moderate,Female,0.047619,1
0.348348,0.357143,0.1,Low,Medium,Yes,0.833333,0.16,Low,Yes,0.166667,Medium,Medium,Public,Positive,0.5,No,College,Moderate,Female,0.071429,10
0.349349,0.428571,0.495779,Low,Medium,Yes,0.666667,0.8,High,Yes,0.333333,Low,Medium,Private,Neutral,0.5,No,Postgraduate,Far,Male,0.214286,5
0.35035,0.5,0.6,High,Medium,No,0.666667,0.38,Medium,No,0.5,Medium,High,Private,Neutral,0.666667,No,College,Near,Male,0.220989,7
0.351351,0.666667,0.425,Low,High,No,0.333333,0.7,Medium,Yes,0.166667,Medium,Medium,Public,Positive,0.166667,No,College,Near,Male,0.261905,4
0.352352,0.571429,0.425,Medium,Low,Yes,0.666667,0.3,High,No,0,Medium,Medium,Public,Positive,0.833333,No,College,Far,Female,0.190476,10
0.353353,0.428571,0.05,Medium,Medium,No,0.166667,0.8,Low,Yes,0.252798,Low,High,Public,Positive,0.5,No,College,Moderate,Male,0.142857,5
0.354354,0.455896,0.525,High,Medium,Yes,0,0.1,Medium,Yes,0.166667,High,Medium,Private,Positive,0.333333,No,Postgraduate,Moderate,Male,0.238095,10
0.355355,0.309524,0.5,High,Medium,Yes,0.166667,0.62,Medium,Yes,0.166667,Low,Medium,Public,Positive,0.666667,No,Postgraduate,Far,Female,0.214286,3
0.356356,0.452381,0.15,Medium,Medium,No,0.333333,0.8,High,Yes,0,Medium,Medium,Public,Neutral,0.166667,No,College,Near,Female,0.142857,2
0.357357,0.404762,0.1,Medium,Medium,Yes,0.333333,0.66,High,Yes,0.333333,Low,Medium,Public,Positive,0.333333,No,College,Near,Male,0.166667,2
0.358358,0.5,0.125,Medium,High,Yes,0.333333,0.7,Medium,Yes,0.333333,High,Medium,Public,Positive,0.5,Yes,Postgraduate,Near,Female,0.190476,5
0.359359,0.333333,0.1,Medium,Medium,Yes,0.333333,0.52,High,Yes,0.333333,Medium,Medium,Private,Positive,0.666667,Yes,'High School',Near,Female,0.119048,4
0.36036,0.52381,0.6,High,Medium,Yes,0.333333,0.56,Low,Yes,0.333333,Low,Low,Public,Negative,0.333333,No,'High School',Moderate,Female,0.238095,2
0.361361,0.666667,0.2,Medium,High,Yes,0,0.06,Medium,Yes,0.166667,Medium,Medium,Private,Negative,0.666667,No,'High School',Far,Male,0.190476,5
0.362362,0.428571,0.25,Medium,Medium,No,0.5,0.26,Low,No,0.5,Low,Low,Public,Neutral,0.833333,No,'High School',Near,Male,0.119048,10
0.363363,0.5,0.175,Low,Medium,No,0.5,0.72,Low,Yes,0.166667,Low,Medium,Public,Positive,0.5,No,'High School',Moderate,Female,0.119048,9
0.364364,0.547619,0.95,High,Medium,Yes,0.333333,0.94,Medium,Yes,0.166667,Medium,Medium,Public,Positive,0.666667,No,College,Far,Male,0.380952,8
0.365365,0.404762,0.85,Medium,High,Yes,0.833333,0.54,Low,Yes,0.166667,Medium,High,Public,Positive,0.333333,No,College,Moderate,Male,0.285714,9
0.366366,0.47619,0.225,High,High,Yes,0.5,0.72,Medium,Yes,0.333333,Low,Medium,Private,Neutral,0.5,No,'High School',Near,Male,0.238095,9
0.367367,0.452381,0.325,Medium,Medium,Yes,0.5,0.68,Medium,Yes,0,Medium,Medium,Public,Neutral,0.666667,No,Postgraduate,Moderate,Female,0.190476,8
0.368368,0.47619,0.2,Medium,Low,No,0.666667,1,Low,Yes,0,Medium,Medium,Public,Positive,0.666667,No,'High School',Far,Male,0.119048,9
0.369369,0.333333,0.5,Low,High,No,0.166667,0.8,Medium,Yes,0.666667,Low,Medium,Public,Positive,0.5,No,College,Far,Female,0.214286,4
0.37037,0.452381,0.025,Medium,Medium,No,0.5,0.62,Medium,Yes,0.166667,Medium,Low,Public,Neutral,0.5,No,'High School',Moderate,Male,0.095238,8
0.371371,0.52381,0.675,High,High,No,0.666667,0.12,Medium,Yes,0.252798,Medium,High,Public,Positive,0.5,No,Postgraduate,Moderate,Male,0.309524,2
0.372372,0.666667,0.525,High,Medium,No,0.5,0.36,Medium,Yes,0.333333,Medium,Medium,Public,Neutral,0.666667,No,Postgraduate,Near,Male,0.333333,9
0.373373,0.595238,0.9,Medium,Medium,Yes,0.166667,0.26,Medium,No,0.166667,High,Medium,Private,Positive,0.333333,No,Postgraduate,Near,Male,0.333333,9
0.374374,0.761905,0.175,Medium,Medium,Yes,0.333333,0.86,High,Yes,0,Low,High,Public,Neutral,0.5,No,'High School',Far,Female,0.238095,3
0.375375,0.333333,0.8,Medium,Low,Yes,0.5,0.44,Low,Yes,0.166667,Medium,Medium,Public,Negative,0.833333,No,'High School',Near,Female,0.190476,6
0.376376,0.571429,0.8,Medium,Medium,No,0,0.54,Medium,Yes,0,Low,Medium,Public,Positive,0.5,No,'High School',Near,Male,0.285714,7
0.377377,0.47619,0.125,Medium,Low,Yes,0.166667,0.96,High,No,0.333333,Low,Medium,Private,Positive,0.666667,No,Postgraduate,Near,Male,0.190476,3
0.378378,0.761905,0.4,Medium,Medium,Yes,1,0.84,Low,Yes,0.166667,High,Medium,Private,Positive,0.5,No,Postgraduate,Near,Female,0.333333,5
0.379379,0.333333,0.175,High,Medium,Yes,0.666667,0.78,Low,Yes,0,High,High,Public,Neutral,0.666667,No,'High School',Moderate,Female,0.142857,1
0.38038,0.333333,0.25,High,Medium,No,0.833333,0.14,Medium,Yes,0.166667,Medium,Medium,Private,Negative,0.5,No,'High School',Near,Female,0.119048,3
0.381381,0.357143,0.275,Medium,Medium,No,0.666667,0.02,Medium,Yes,0,Low,Medium,Public,Negative,0.333333,No,Postgraduate,Far,Female,0.071429,8
0.382382,0.142857,0.55,High,High,Yes,0.666667,0.12,Medium,Yes,0,Low,Medium,Private,Negative,0.333333,No,'High School',Far,Male,0.095238,3
0.383383,0.380952,0.4,Medium,High,No,0.5,0.74,High,Yes,0.166667,Medium,High,Public,Positive,0.666667,No,'High School',Near,Female,0.238095,8
0.384384,0.333333,0.95,Low,Medium,Yes,0.666667,0.42,Low,Yes,0.166667,Medium,Medium,Public,Positive,0.5,No,'High School',Near,Male,0.238095,9
0.385385,0.47619,0.125,Low,Medium,No,0.833333,0.12,High,Yes,0.166667,Medium,Medium,Public,Positive,0.833333,No,'High School',Moderate,Male,0.119048,6
0.386386,0.5,0.975,Medium,Low,Yes,0.666667,0.74,Low,Yes,0.166667,Medium,Medium,Private,Neutral,0.666667,No,'High School',Moderate,Female,0.285714,7
0.387387,0.714286,0.225,High,Low,Yes,0.5,0.2,Medium,Yes,0.166667,Low,Medium,Public,Neutral,0.5,No,Postgraduate,Near,Female,0.238095,6
0.388388,0.595238,0.775,High,Medium,Yes,0.5,0.58,Medium,Yes,0.166667,Low,Medium,Private,Neutral,0.833333,No,'High School',Near,Female,0.333333,8
0.389389,0.380952,0.35,Medium,Medium,Yes,0.666667,0.74,Medium,Yes,0.666667,Low,Low,Public,Positive,0.5,No,College,Near,Male,0.214286,7
0.39039,0.333333,0.15,Low,High,No,0.333333,0.6,Medium,No,0.166667,Low,Medium,Private,Neutral,0.166667,No,College,Near,Male,0.071429,10
0.391391,0.52381,0.85,Low,Medium,No,0.666667,1,Medium,No,0,Low,Medium,Public,Neutral,0.5,No,Postgraduate,Near,Male,0.261905,1
0.392392,0.261905,0.3,Medium,Low,Yes,0.333333,0.44,High,Yes,0.333333,Low,High,Private,Negative,0.333333,No,'High School',Moderate,Female,0.220989,3
0.393393,0.714286,0.65,High,High,Yes,0.333333,0.32,Medium,Yes,0.252798,Medium,Medium,Public,Positive,0.5,No,College,Moderate,Male,0.404762,3
0.394394,0.619048,0.575,High,Low,No,0.166667,0.2,Medium,Yes,0,High,Low,Public,Neutral,0.333333,No,College,Moderate,Female,0.238095,3
0.395395,0.380952,0.475,Medium,Low,Yes,0.333333,0.5,Low,Yes,0.166667,Medium,High,Public,Neutral,0.666667,No,'High School',Near,Male,0.166667,4
0.396396,0.214286,0.5,High,Medium,Yes,0.333333,0.86,High,Yes,0.666667,Medium,Medium,Public,Negative,0.5,No,College,Moderate,Female,0.214286,1
0.397397,0.642857,0.725,Medium,High,Yes,1,0.94,High,Yes,0.5,Medium,Low,Public,Negative,1,No,'High School',Near,Female,0.404762,2
0.398398,0.428571,0.1,Low,Medium,No,0.333333,0.98,Medium,Yes,0.166667,Medium,Medium,Public,Positive,0.5,No,College,Near,Male,0.142857,5
0.399399,0.619048,0.675,Medium,Medium,No,0.666667,0.54,Medium,Yes,0.166667,Low,High,Public,Neutral,0.666667,No,'High School',Moderate,Male,0.285714,6
0.4004,0.214286,0.9,High,High,No,0.333333,0.6,Medium,No,0,Medium,Medium,Public,Neutral,0.666667,No,'High School',Moderate,Female,0.214286,9
0.401401,0.357143,0.05,Medium,Medium,Yes,0.5,0.58,Low,Yes,0.333333,Medium,Medium,Public,Neutral,0.5,No,'High School',Near,Male,0.119048,2
0.402402,0.452381,0.15,High,High,No,0.5,0.46,Medium,Yes,0.166667,Medium,Medium,Public,Negative,0.666667,No,'High School',Near,Female,0.166667,9
0.403403,0.452381,0.725,Medium,Medium,Yes,0,0.16,Medium,Yes,0.166667,Medium,Medium,Public,Positive,0.5,No,'High School',Far,Female,0.214286,7
0.404404,0.380952,0.425,Low,High,Yes,0.166667,0.06,Medium,Yes,0.333333,High,Medium,Public,Neutral,0.5,No,College,Near,Male,0.666667,9
0.405405,0.547619,0.4,Low,High,No,0.333333,0.44,High,Yes,0.5,Medium,High,Public,Neutral,0.5,Yes,'High School',Moderate,Female,0.214286,4
0.406406,0.309524,0.125,High,Medium,No,0.166667,0.18,Low,Yes,0.166667,High,Medium,Public,Positive,0.666667,No,Postgraduate,Far,Male,0.119048,7
0.407407,0.428571,0.5,Medium,Medium,No,0.5,0.88,Medium,Yes,0,Medium,Low,Public,Neutral,0.5,No,College,Moderate,Female,0.190476,1
0.408408,0.47619,0.125,High,High,No,0.5,0.76,Low,Yes,0.333333,Low,Medium,Private,Neutral,0.166667,No,'High School',Near,Male,0.166667,8
0.409409,0.52381,0.475,Medium,Medium,No,0.166667,0.62,Medium,Yes,0.166667,Medium,Medium,Private,Neutral,0.5,No,'High School',Near,Female,0.214286,7
0.41041,0.547619,0.775,Medium,Medium,No,0.5,0.04,Low,Yes,0,High,High,Public,Neutral,0.666667,No,College,Near,Male,0.261905,7
0.411411,0.285714,0.25,High,High,No,0.333333,0.62,Medium,Yes,0.333333,Medium,Low,Public,Positive,0.333333,No,Postgraduate,Near,Male,0.190476,2
0.412412,0.238095,0.475,Medium,Medium,Yes,0.5,0.62,Medium,Yes,0.166667,High,Medium,Public,Neutral,0.333333,No,'High School',Moderate,Male,0.142857,10
0.413413,0.642857,0.495779,High,Low,Yes,0.333333,0.44,Medium,Yes,0.166667,Low,Medium,Public,Negative,0.333333,No,Postgraduate,Near,Female,0.357143,9
0.414414,0.5,0.675,Low,Medium,No,0.666667,0.503387,Low,Yes,0.166667,Low,Medium,Public,Neutral,0.166667,No,College,Far,Male,0.190476,8
0.415415,0.357143,0.85,Medium,Medium,No,0.833333,0.86,Low,Yes,0.166667,Low,Medium,Public,Negative,0.666667,No,Postgraduate,Near,Female,0.238095,1
0.416416,0.666667,0.425,High,Low,Yes,0.666667,0.76,Low,Yes,0,Medium,High,Public,Positive,0.666667,No,College,Moderate,Male,0.285714,1
0.417417,0.47619,0.775,High,Medium,No,0.833333,0.48,Medium,Yes,0.333333,Low,Low,Private,Negative,0.333333,No,'High School',Near,Female,0.261905,5
0.418418,0.619048,0.05,Medium,High,Yes,0.166667,0.26,Low,Yes,0.666667,High,Medium,Public,Negative,0.666667,No,'High School',Near,Female,0.214286,2
0.419419,0.452381,0.125,Medium,Low,No,0.333333,0.48,Low,Yes,0,Medium,Medium,Private,Positive,0.5,No,College,Moderate,Male,0.095238,1
0.42042,0.738095,0.2,Medium,Low,No,0.666667,0.94,High,Yes,0.166667,Low,Medium,Public,Positive,0.333333,No,'High School',Near,Male,0.238095,10
0.421421,0.714286,0.4,Medium,High,Yes,0.833333,0.82,Medium,Yes,0.166667,Low,Medium,Private,Neutral,0.666667,No,Postgraduate,Near,Male,0.333333,8
0.422422,0.428571,0.85,Low,Medium,No,0.666667,0.02,Medium,Yes,0.5,Medium,Low,Private,Positive,0.833333,No,Postgraduate,Near,Male,0.261905,4
0.423423,0.595238,0.35,Low,Low,No,0.166667,0.78,Low,Yes,0.5,High,High,Private,Negative,0.333333,No,'High School',Near,Male,0.190476,2
0.424424,0.547619,0.65,High,High,No,0.333333,0.18,Medium,Yes,0.166667,Low,Medium,Public,Positive,0.5,No,'High School',Moderate,Female,0.285714,5
0.425425,0.642857,0.7,High,Medium,No,0.666667,0.58,Medium,Yes,0,Medium,Medium,Public,Positive,0.5,No,'High School',Far,Male,0.309524,6
0.426426,0.309524,0.575,Medium,Medium,Yes,0.5,0.8,Medium,Yes,0,Low,Low,Public,Negative,0.5,No,College,Near,Female,0.166667,8
0.427427,0.547619,0.35,High,Medium,Yes,0.333333,0.56,Medium,Yes,0.5,Low,High,Public,Positive,0.5,No,College,Near,Female,0.285714,7
0.428428,0.595238,0.575,Low,Low,No,0.5,0.4,High,No,0.333333,Medium,High,Public,Negative,0.666667,Yes,'High School',Moderate,Male,0.166667,7
0.429429,0.190476,0.35,Medium,High,No,0.5,0.32,Low,Yes,0.166667,High,High,Private,Neutral,0.5,No,'High School',Far,Female,0.095238,1
0.43043,0.285714,0.075,High,Medium,Yes,0.166667,0.3,Medium,Yes,0.333333,High,Medium,Private,Neutral,0.333333,No,'High School',Far,Male,0.095238,3
0.431431,0.166667,1,High,Medium,Yes,0.666667,0.84,Medium,Yes,0.166667,Medium,High,Public,Neutral,0.5,No,Postgraduate,Moderate,Female,0.285714,3
0.432432,0.404762,0.125,Medium,High,Yes,0.333333,0.82,Medium,No,0.833333,Low,Medium,Private,Neutral,0.5,No,College,Near,Male,0.190476,7
0.433433,0.547619,0.075,Medium,Low,Yes,0.5,0.82,Low,Yes,0.666667,Low,Medium,Private,Positive,0.666667,No,'High School',Near,Female,0.214286,2
0.434434,0.666667,0.875,Medium,Low,No,0.833333,0.28,Medium,Yes,0.166667,Medium,High,Public,Positive,0.5,No,'High School',Near,Female,0.333333,10
0.435435,0.452381,0.3,High,Low,Yes,0.5,0.8,Low,Yes,0,Low,High,Public,Negative,0.5,No,Postgraduate,Near,Female,0.190476,?
0.436436,0.690476,0.65,Medium,Low,Yes,0.666667,0.04,Medium,Yes,0.333333,Medium,Medium,Public,Negative,0.333333,Yes,College,Moderate,Female,0.238095,9
0.437437,0.455896,0.325,High,Medium,No,0.166667,0.2,Medium,Yes,0.166667,Low,Medium,Public,Negative,0.666667,No,'High School',Moderate,Male,0.095238,1
0.438438,0.214286,0.4,Low,Medium,Yes,0.666667,0.52,Medium,Yes,0.333333,High,High,Private,Positive,0.5,Yes,Postgraduate,Moderate,Male,0.142857,2
0.439439,0.452381,0.25,Medium,Medium,No,0.666667,0.4,Medium,Yes,0,Low,Medium,Public,Neutral,0.833333,No,Postgraduate,Near,Female,0.166667,6
0.44044,0.5,0.35,Medium,Low,Yes,0.333333,0.12,Low,Yes,0.666667,Medium,High,Public,Negative,0.5,No,Postgraduate,Moderate,Male,0.190476,2
0.441441,0.452381,0.4,Medium,Low,No,0.5,0.04,Medium,Yes,0.333333,Low,High,Private,Neutral,0.5,No,'High School',Near,Female,0.142857,2
0.442442,0.166667,0.725,Medium,High,Yes,0.5,0.62,Low,Yes,0.666667,Low,Medium,Public,Neutral,0.5,No,College,Near,Male,0.214286,5
0.443443,0.428571,0.5,High,Medium,Yes,0.5,0.32,Low,Yes,0.666667,Medium,Medium,Public,Negative,0.666667,No,College,Near,Female,0.261905,7
0.444444,0.261905,0.95,High,Medium,Yes,0.666667,0.02,Medium,Yes,0,Medium,Low,Public,Positive,0.833333,No,Postgraduate,Moderate,Male,0.238095,4
0.445445,0.547619,0.05,Medium,Medium,No,0.333333,0.44,High,Yes,0.333333,Low,Low,Public,Neutral,0.666667,No,'High School',Near,Male,0.142857,6
0.446446,0.5,0.5,High,Medium,Yes,0.5,0.3,Medium,Yes,0.333333,High,Medium,Private,Neutral,0.333333,No,'High School',Moderate,Female,0.238095,3
0.447447,0.309524,0.575,Low,Low,Yes,0.833333,0.503387,Medium,Yes,0.166667,Medium,Low,Public,Positive,0.5,No,'High School',Near,Male,0.142857,4
0.448448,0.380952,0.925,Medium,High,No,0.833333,0.92,High,Yes,0,High,Medium,Public,Positive,0.166667,No,Postgraduate,Near,Male,0.309524,4
0.449449,0.309524,0.05,High,High,Yes,0.666667,0.3,Low,Yes,0.5,Low,Medium,Public,Negative,0.333333,No,'High School',Far,Male,0.071429,4
0.45045,0.452381,0.575,Low,Medium,No,0.5,1,Medium,Yes,0.666667,Low,Medium,Public,Negative,0.5,No,College,Near,Male,0.238095,1
0.451451,0.595238,0.85,High,Medium,Yes,1,0.08,Low,Yes,0.333333,High,Medium,Public,Neutral,0.833333,No,'High School',Near,Male,0.357143,4
0.452452,0.309524,0.25,High,Medium,Yes,0.833333,0.08,Medium,No,0.5,Medium,Medium,Public,Positive,0.166667,No,College,Near,Male,0.142857,4
0.453453,0.52381,0.875,Medium,Medium,Yes,0.5,0.72,Medium,Yes,0.5,Low,Medium,Public,Positive,0.666667,Yes,Postgraduate,Far,Male,0.333333,6
0.454454,0.380952,0.025,Medium,Medium,Yes,0.5,0.503387,High,Yes,0.833333,Medium,Medium,Public,Neutral,0.5,No,'High School',Near,Male,0.166667,9
0.455455,0.333333,0.725,Medium,Medium,Yes,0.333333,0.42,Medium,Yes,0.166667,Medium,High,Public,Positive,0.666667,No,'High School',Near,Female,0.238095,10
0.456456,0.455896,0.925,High,Low,Yes,0.666667,0.28,Medium,Yes,0.333333,Low,High,Public,Positive,0.5,No,'High School',Near,Male,0.309524,6
0.457457,0.309524,0.65,Medium,Low,Yes,0.666667,0.8,Medium,No,0.5,Medium,Medium,Public,Negative,0.5,Yes,Postgraduate,Near,Male,0.166667,6
0.458458,0.380952,0.45,Medium,Medium,No,0.666667,0.96,Low,Yes,0.333333,Medium,Medium,Private,Positive,0.333333,No,'High School',Near,Male,0.190476,7
0.459459,0.285714,0.05,Low,High,No,0.5,0.98,Medium,Yes,0.666667,Medium,Low,Public,Positive,0.166667,No,Postgraduate,Moderate,Female,0.119048,7
0.46046,0.738095,0.925,Medium,High,No,0.166667,0.64,Medium,Yes,0.166667,Medium,Medium,Public,Neutral,0.5,No,'High School',Moderate,Male,0.380952,1
0.461461,0.452381,0.475,High,Low,Yes,0.5,0.503387,Low,No,0.333333,Medium,High,Private,Neutral,0.666667,Yes,'High School',Near,Female,0.190476,8
0.462462,0.357143,0.025,Medium,Low,No,0.666667,0.82,High,Yes,0.333333,Medium,High,Public,Neutral,0.5,No,College,Moderate,Male,0.119048,1
0.463463,0.47619,0.7,High,Medium,Yes,0.333333,0.8,High,Yes,0.333333,High,Medium,Private,Positive,0.666667,No,'High School',Moderate,Male,0.333333,9
0.464464,0.428571,0.475,Medium,High,No,0.5,1,Low,Yes,0.166667,High,High,Public,Positive,0.333333,No,College,Far,Female,0.261905,4
0.465465,0.428571,0.125,Medium,High,Yes,0.833333,0.82,Medium,Yes,0.166667,Medium,High,Public,Positive,0.666667,No,College,Near,Male,0.214286,9
0.466466,0.547619,0.225,Low,High,No,0.166667,0.66,Low,Yes,0.5,Low,Medium,Private,Neutral,0.5,No,'High School',Near,Male,0.190476,8
0.467467,0.571429,0.075,High,Medium,No,0.5,0.38,Medium,Yes,0,Low,High,Private,Negative,0.833333,No,'High School',Moderate,Female,0.220989,9
0.468468,0.380952,0.575,Low,Medium,No,0.833333,0.6,Medium,Yes,0.666667,Medium,High,Public,Negative,0.333333,No,College,Near,Female,0.214286,6
0.469469,0.380952,0.625,Medium,Low,No,0.5,0.88,High,Yes,0.666667,Low,Medium,Public,Positive,0.505735,No,College,Near,Female,0.261905,9
0.47047,0.404762,0.5,Medium,Low,Yes,0.333333,0.3,Medium,Yes,0.333333,Low,High,Public,Negative,0.333333,No,College,Near,Female,0.166667,4
0.471471,0.119048,0.825,Medium,Medium,No,0.5,0.04,High,Yes,0,Medium,Medium,Public,Neutral,0.333333,No,College,Near,Female,0.142857,3
0.472472,0.238095,0.85,Medium,Low,Yes,0.666667,0.32,High,No,0.166667,High,Low,Public,Neutral,0.666667,No,'High School',Near,Female,0.166667,3
0.473473,0.642857,0.625,Medium,High,Yes,0.5,0.96,Medium,Yes,0.333333,Low,High,Private,Positive,0.166667,Yes,'High School',Near,Male,0.333333,8
0.474474,0.690476,0.025,Low,High,Yes,0.666667,0.8,Medium,Yes,0.333333,Low,Medium,Public,Negative,0.333333,No,'High School',Moderate,Female,0.190476,2
0.475475,0.428571,0.7,Medium,Low,No,0.5,0.18,Medium,Yes,0.333333,Low,Medium,Public,Neutral,0.5,No,College,Near,Female,0.190476,6
0.476476,0.52381,0.425,High,High,Yes,0.5,0.02,Medium,Yes,0.166667,Low,Low,Private,Positive,0.5,No,College,Moderate,Male,0.214286,9
0.477477,0.5,0.575,Medium,Medium,Yes,0.666667,0.66,High,Yes,0.166667,High,Medium,Private,Negative,0.5,Yes,Postgraduate,Moderate,Male,0.261905,9
0.478478,0.880952,0.65,Low,High,Yes,0.5,0.58,Low,Yes,0.5,Low,Medium,Public,Negative,0.5,No,'High School',Near,Male,0.357143,8
0.479479,0.619048,0.35,Medium,High,No,0.333333,0.08,Medium,Yes,0.5,Medium,Medium,Public,Neutral,0.5,No,College,Near,Female,0.261905,8
0.48048,0.428571,0.925,Medium,Low,No,0.666667,0.96,Medium,Yes,0.166667,Low,Medium,Private,Neutral,0.666667,Yes,'High School',Near,Male,0.238095,1
0.481481,0.309524,0.125,Low,Medium,Yes,0.5,0.62,Medium,Yes,0.166667,Low,Medium,Public,Positive,0.5,No,'High School',Moderate,Female,0.071429,7
0.482482,0.214286,0.675,Medium,Low,Yes,0.333333,0.66,Medium,No,0,Low,Medium,Public,Positive,0.666667,No,'High School',Near,Male,0.119048,1
0.483483,0.47619,0,Medium,High,Yes,0.666667,0.86,Low,Yes,0,Low,Medium,Public,Positive,0.333333,No,'High School',Near,Female,0.119048,9
0.484484,0.333333,0.925,Low,Medium,Yes,0.833333,0.34,Medium,Yes,0.166667,Low,High,Public,Neutral,0.333333,No,College,Near,Male,0.238095,3
0.485485,0.238095,0.125,Medium,High,No,0.5,0.56,Medium,Yes,0.333333,Low,Medium,Public,Neutral,0.5,No,Postgraduate,Near,Male,0.119048,1
0.486486,0.357143,0.1,High,Medium,Yes,0.5,0.58,Medium,Yes,0.5,Medium,Medium,Private,Positive,0.666667,Yes,Postgraduate,Near,Female,0.190476,8
0.487487,0.309524,0.325,High,Medium,Yes,0.166667,0.96,Medium,Yes,0.333333,Low,Medium,Public,Negative,0.666667,No,'High School',Moderate,Female,0.166667,7
0.488488,0.690476,0.375,High,High,No,0.5,0.14,High,Yes,0,Low,Medium,Public,Neutral,0.166667,Yes,College,Near,Female,0.238095,2
0.489489,0.571429,0.225,Medium,Medium,Yes,0.5,0.76,High,Yes,0,Low,Medium,Public,Negative,0.666667,No,College,Near,Female,0.190476,7
0.49049,0.452381,0.575,Low,Low,No,0.5,0.58,Low,No,0.333333,Medium,Medium,Public,Positive,0.833333,No,Postgraduate,Moderate,Male,0.190476,5
0.491491,0.666667,0.45,High,Medium,No,0.333333,0.84,Medium,Yes,0.333333,Low,Medium,Private,Negative,0.666667,No,'High School',Near,Male,0.285714,7
0.492492,0.452381,0.025,Low,Low,Yes,0.666667,0.84,Medium,Yes,0,Medium,Medium,Public,Negative,0.333333,No,'High School',Near,Female,0.071429,10
0.493493,0.333333,0.325,Medium,Low,Yes,0.5,0.02,Medium,Yes,0.333333,Low,High,Private,Negative,0.5,No,'High School',Moderate,Male,0.071429,7
0.494494,0.666667,0.8,Medium,Medium,Yes,1,0.26,High,Yes,0.166667,Low,High,Private,Negative,0.666667,No,'High School',Moderate,Male,0.309524,2
0.495495,0.52381,0.7,Low,Medium,Yes,0.5,0.18,Medium,Yes,0.166667,Medium,Medium,Public,Negative,0.333333,No,'High School',Near,Male,0.214286,2
0.496496,0.309524,0.725,High,High,Yes,0,0.46,Medium,Yes,0.333333,Medium,High,Public,Negative,0.5,No,College,Near,Male,0.285714,7
0.497497,0.428571,0.7,High,Medium,No,0.166667,0.9,Medium,Yes,0.333333,Low,Medium,Private,Negative,0.666667,No,College,Moderate,Male,0.261905,3
0.498498,0.333333,0.3,High,High,No,0.666667,0,Medium,Yes,0.333333,Medium,Medium,Public,Neutral,0.666667,No,'High School',Near,Female,0.166667,4
0.499499,0.261905,0.1,High,Low,Yes,0.333333,0.48,High,Yes,0,Medium,Medium,Public,Positive,0.333333,No,'High School',Moderate,Male,0.071429,7
0.500501,0.595238,0.275,Medium,Low,No,0.333333,0.88,Low,Yes,0.5,Low,Medium,Public,Positive,0.666667,No,Postgraduate,Near,Male,0.238095,2
0.501502,0.714286,0.825,High,Low,Yes,0.166667,0.92,Medium,Yes,0.333333,Low,Medium,Public,Positive,0.333333,No,'High School',Near,Male,0.380952,2
0.502503,0.261905,0.975,Medium,Medium,No,0.333333,0.66,Low,Yes,0.166667,Medium,Medium,Public,Negative,0.5,No,'High School',Near,Female,0.214286,9
0.503504,0.52381,0.5,Medium,Medium,Yes,0.5,0.82,Low,Yes,0.833333,High,Medium,Public,Negative,0.166667,No,'High School',Near,Female,0.285714,1
0.504505,0.357143,0,Low,Medium,Yes,0.666667,0.32,Low,Yes,0.166667,High,High,Private,Neutral,0.333333,Yes,'High School',Moderate,Female,0.02381,3
0.505506,0.380952,0.15,High,High,No,0.166667,0.28,Low,Yes,0,Medium,High,Private,Neutral,0.333333,No,College,Near,Male,0.142857,10
0.506507,0.357143,0.325,High,Medium,Yes,0.666667,0.04,Medium,Yes,0.333333,Medium,High,Public,Positive,0.666667,No,College,Near,Female,0.190476,4
0.507508,0.333333,0.575,Low,Low,Yes,0.166667,0.5,Medium,Yes,0.166667,Medium,Medium,Public,Neutral,0.5,No,'High School',Far,Female,0.119048,5
0.508509,0.452381,0.075,Low,Low,Yes,0.666667,0.46,Low,Yes,0.252798,High,Medium,Public,Neutral,0.5,No,College,Near,Female,0.071429,3
0.50951,0.333333,0.95,Low,High,Yes,0.666667,0.38,Low,Yes,0.333333,Low,Medium,Public,Neutral,0.666667,No,'High School',Moderate,Female,0.238095,9
0.510511,0.5,0.375,Medium,Medium,No,0.333333,0.12,Low,Yes,0.5,Medium,Medium,Private,Positive,0.5,No,'High School',Far,Male,0.166667,5
0.511512,0.452381,0.925,Medium,High,No,0.166667,0.24,Medium,Yes,0.166667,Medium,Medium,Private,Neutral,0.666667,No,'High School',Far,Male,0.261905,7
0.512513,0.428571,0.775,High,Low,Yes,0.666667,0.2,Medium,Yes,0.333333,Low,Medium,Private,Neutral,0.666667,No,'High School',Moderate,Male,0.238095,7
0.513514,0.333333,0.75,Medium,Low,Yes,0.333333,0.94,Low,Yes,0.333333,High,High,Public,Positive,0.333333,No,'High School',Near,Male,0.261905,9
0.514515,0.380952,0.6,Medium,Low,Yes,0.5,0.96,High,Yes,0.166667,Low,High,Public,Positive,0.333333,No,College,Far,Female,0.214286,2
0.515516,0.571429,0.625,High,High,No,0.666667,0,High,Yes,0.166667,High,Medium,Public,Neutral,0.166667,No,College,Moderate,Female,0.285714,3
0.516517,0.52381,0.65,Medium,Medium,Yes,0.666667,0.18,Low,Yes,0.166667,Low,Medium,Public,Neutral,0.5,No,Postgraduate,Moderate,Female,0.238095,4
0.517518,0.309524,0.625,Medium,Medium,No,0.333333,0.88,Low,Yes,0,High,Medium,Public,Positive,0.666667,No,College,Near,Male,0.214286,8
0.518519,0.47619,0.55,High,Medium,No,0.5,0.04,Medium,Yes,0.666667,Low,Medium,Public,Neutral,0.5,No,'High School',Far,Male,0.214286,1
0.51952,0.571429,0.975,High,Medium,Yes,0.333333,0.94,High,Yes,0,Medium,Medium,Public,Positive,0.5,No,College,Moderate,Male,0.404762,9
0.520521,0.214286,0.725,Low,Low,Yes,0.666667,0.38,Low,Yes,0.5,Low,Medium,Public,Negative,0.666667,No,College,Near,Male,0.119048,5
0.521522,0.52381,0.775,Low,Medium,No,0.833333,0.54,High,Yes,0.166667,Low,Medium,Public,Positive,0.833333,No,'High School',Near,Male,0.285714,4
0.522523,0.357143,0.875,Medium,Low,Yes,0.333333,0.76,Low,Yes,0.333333,High,High,Public,Positive,0.666667,No,'High School',Near,Female,0.285714,8
0.523524,0.52381,0.225,Medium,High,Yes,0.5,0.24,Medium,Yes,0.166667,Medium,Medium,Public,Neutral,0.666667,Yes,'High School',Far,Male,0.142857,9
0.524525,0.333333,0.075,Medium,Low,No,0.666667,0.1,Low,Yes,0,Medium,Low,Public,Neutral,0.5,No,College,Near,Female,0.02381,3
0.525526,0.190476,0.475,Medium,Low,No,0.5,0.8,High,Yes,0.166667,High,Low,Public,Neutral,0.5,No,'High School',Near,Male,0.119048,4
0.526527,0.214286,0.525,High,Medium,Yes,0.666667,0.98,Medium,No,0.333333,Medium,Medium,Public,Positive,0.666667,No,Postgraduate,Moderate,Female,0.214286,1
0.527528,0.452381,0.825,Low,High,Yes,0.5,0.66,Medium,Yes,0,Medium,Medium,Private,Negative,0.333333,Yes,'High School',Near,Male,0.238095,3
0.528529,0.5,0.45,Medium,Medium,Yes,0.166667,0.82,Low,Yes,0,Medium,High,Private,Negative,0.5,No,Postgraduate,Near,Male,0.238095,10
0.52953,0.455896,0.575,Medium,Medium,No,0.5,0.94,Medium,Yes,0.333333,Low,High,Private,Neutral,0.333333,No,'High School',Near,Female,0.928571,5
0.530531,0.547619,0.525,Medium,Low,No,0.833333,0.22,Medium,Yes,0.166667,Low,Low,Public,Positive,0.666667,No,College,Near,Female,0.190476,?
0.531532,0.214286,0.05,Medium,Low,No,0.5,0.36,High,Yes,0.5,Medium,Medium,Public,Neutral,0.5,No,Postgraduate,Near,Male,0.071429,1
0.532533,0.452381,0.625,High,Medium,No,0.833333,0.22,High,Yes,0.333333,High,Medium,Public,Positive,0.5,No,College,Near,Male,0.285714,1
0.533534,0.285714,0.825,Low,Low,Yes,0,0.06,High,Yes,0.166667,Medium,Low,Public,Positive,0.166667,No,Postgraduate,Near,Male,0.166667,3
0.534535,0.357143,0.15,Low,Medium,Yes,0.666667,0.74,High,Yes,0.5,Medium,Medium,Public,Positive,0.333333,No,'High School',Moderate,Female,0.142857,9
0.535536,0.452381,0.6,Medium,High,Yes,0.333333,0.14,High,Yes,0.333333,Medium,Medium,Public,Positive,0.505735,No,'High School',Far,Female,0.261905,9
0.536537,0.333333,0.6,Medium,High,No,0.333333,0.1,Low,Yes,0.166667,Medium,Medium,Private,Negative,0.333333,No,'High School',Near,Male,0.142857,1
0.537538,0.404762,0.175,Low,Low,Yes,0.833333,0.36,Low,Yes,0.333333,Low,High,Private,Negative,0.333333,No,Postgraduate,Near,Male,0.071429,4
0.538539,0.595238,0.125,Low,Medium,No,0.5,0.06,Low,Yes,0.5,High,Medium,Public,Positive,0.333333,No,'High School',Near,Female,0.142857,8
0.53954,0.380952,0.975,Medium,High,No,0.333333,0.503387,Medium,Yes,0,Medium,Medium,Public,Neutral,0.5,No,'High School',Moderate,Male,0.238095,2
0.540541,0.571429,0.4,Medium,High,No,0.666667,0.06,High,Yes,0.166667,High,High,Public,Positive,0.5,Yes,'High School',Near,Female,0.214286,4
0.541542,0.285714,0.495779,High,Low,No,0,0.88,Medium,Yes,0.5,Low,Low,Public,Positive,0.5,Yes,'High School',Near,Male,0.095238,7
0.542543,0.52381,0.175,Medium,Medium,Yes,0.833333,0.78,Medium,Yes,0.333333,Low,High,Public,Neutral,0.333333,No,'High School',Near,Female,0.190476,7
0.543544,0.666667,0.675,Medium,High,Yes,1,0.86,High,Yes,0.166667,Low,Medium,Public,Neutral,0.666667,No,'High School',Moderate,Male,0.333333,5
0.544545,0.095238,0.6,Medium,Medium,Yes,0.666667,0.86,High,Yes,0.666667,High,High,Public,Positive,0.5,No,College,Moderate,Male,0.238095,7
0.545546,0.333333,0.65,Medium,High,Yes,0.666667,0.94,Medium,Yes,0.666667,High,Medium,Public,Positive,0.5,No,'High School',Near,Male,0.309524,6
0.546547,0.52381,0.1,Medium,Medium,Yes,0.5,0.18,High,Yes,0.5,Medium,Medium,Public,Positive,0.333333,No,'High School',Moderate,Female,0.166667,2
0.547548,0.455896,0.9,Medium,Low,Yes,0.166667,0.9,Low,No,0.333333,Medium,Low,Private,Neutral,0.5,No,'High School',Moderate,Female,0.238095,9
0.548549,0.5,0.4,Medium,Low,No,0.833333,0.52,Medium,Yes,0.333333,Low,High,Public,Neutral,0.833333,No,'High School',Far,Female,0.166667,5
0.54955,0.357143,0.325,High,Low,Yes,0.666667,0.16,Medium,Yes,0.166667,Medium,Medium,Public,Neutral,0.666667,No,'High School',Near,Female,0.142857,2
0.550551,0.47619,0.45,Medium,Low,No,0.666667,0.66,Medium,Yes,0.333333,Medium,Medium,Public,Positive,0.666667,Yes,'High School',Far,Male,0.166667,6
0.551552,0.428571,0.4,High,High,Yes,0.666667,0.32,Low,Yes,0,Low,High,Private,Negative,0.666667,Yes,'High School',Near,Male,0.166667,10
0.552553,0.619048,0.875,High,Medium,No,0.5,0.04,High,Yes,0.5,Medium,High,Private,Negative,0.5,No,College,Moderate,Female,0.357143,5
0.553554,0.5,0.925,Medium,High,Yes,0.333333,0.08,Medium,Yes,0.166667,Low,High,Public,Positive,0.5,No,Postgraduate,Near,Male,0.333333,2
0.554555,0.5,0.3,Low,Medium,Yes,1,0.42,Medium,Yes,0.166667,Medium,Medium,Private,Negative,0.166667,No,College,Near,Male,0.142857,10
0.555556,0.404762,0.875,Medium,Medium,Yes,0.5,0.82,Low,Yes,0,Low,Medium,Public,Positive,0.666667,Yes,Postgraduate,Moderate,Male,0.261905,10
0.556557,0.380952,0.775,Medium,Medium,No,0.333333,0.32,High,Yes,0.166667,High,Medium,Private,Positive,0.5,No,'High School',Near,Male,0.261905,7
0.557558,0.380952,0.925,Medium,High,Yes,0.833333,0.76,Medium,No,0,Medium,Medium,Public,Positive,0.333333,No,'High School',Near,Male,0.285714,10
0.558559,0.5,0.25,Low,Medium,No,0.5,0.06,Low,Yes,0.166667,Low,Medium,Public,Positive,0.5,No,'High School',Near,Female,0.595238,2
0.55956,0.380952,0.575,High,Medium,No,0.5,0.4,Low,Yes,0.5,Low,Medium,Private,Neutral,0.833333,No,Postgraduate,Near,Female,0.238095,7
0.560561,0.5,0.275,Low,High,Yes,0.833333,0.12,High,Yes,0.166667,Low,High,Public,Neutral,0.5,Yes,College,Near,Female,0.619048,6
0.561562,0.738095,0.825,Medium,Medium,Yes,0.666667,0.86,High,Yes,0.166667,Medium,High,Public,Negative,0.5,No,Postgraduate,Far,Female,0.404762,4
0.562563,0.455896,0,Low,High,No,0.666667,0.96,Medium,Yes,0.166667,Medium,Medium,Public,Neutral,0.833333,No,Postgraduate,Near,Female,0.214286,4
0.563564,0.404762,0.575,Medium,High,Yes,0.166667,0.32,Medium,Yes,0,High,Medium,Private,Positive,0.666667,No,Postgraduate,Near,Male,0.261905,6
0.564565,0.619048,0.35,High,Medium,No,0.666667,0.98,High,No,0.5,Medium,Medium,Public,Positive,0.666667,No,'High School',Near,Male,0.309524,9
0.565566,0.404762,0.325,Medium,Low,Yes,0.166667,0.76,Medium,Yes,0.166667,Medium,Medium,Public,Positive,0.833333,No,College,Near,Female,0.190476,10
0.566567,0.166667,0.65,Medium,High,No,0.333333,0,High,Yes,0.252798,Medium,Medium,Public,Positive,0.333333,No,College,Near,Male,0.166667,6
0.567568,0.309524,0.85,High,Medium,No,0.490582,0.48,Medium,Yes,0.166667,High,Medium,Private,Positive,0.833333,No,College,Near,Male,0.285714,6
0.568569,0.190476,0.6,High,Low,No,0.5,0.84,High,Yes,0.166667,Low,High,Public,Negative,0.666667,No,Postgraduate,Near,Male,0.190476,1
0.56957,0.404762,0.85,High,Medium,Yes,0.666667,0.54,Medium,Yes,0.5,Medium,High,Public,Positive,0.666667,No,Postgraduate,Near,Male,0.380952,5
0.570571,0.452381,0.275,High,Medium,No,0.666667,0.54,Medium,Yes,0,High,Medium,Private,Neutral,0.666667,No,'High School',Moderate,Male,0.190476,1
0.571572,0.690476,0.525,Medium,High,No,0.666667,0.44,Low,Yes,0,Low,Medium,Public,Neutral,0.333333,No,'High School',Moderate,Male,0.238095,9
0.572573,0.5,0.45,Medium,High,Yes,0.166667,0.4,Medium,Yes,0.333333,Low,Medium,Public,Positive,0.166667,No,College,Near,Male,0.238095,10
0.573574,0.428571,0,Medium,High,No,1,0.503387,Medium,Yes,0,Medium,Medium,Public,Positive,0.5,Yes,College,Near,Female,0.095238,4
0.574575,0.571429,0.55,Medium,High,Yes,0.5,0.62,Medium,Yes,0.333333,Medium,Medium,Private,Neutral,0.333333,No,Postgraduate,Near,Male,0.309524,2
0.575576,0.142857,0.65,Medium,Low,No,0.833333,0.76,Medium,Yes,0.333333,Low,Medium,Public,Negative,0.333333,No,College,Near,Female,0.119048,9
0.576577,0.47619,0.6,High,High,No,0,0.8,Medium,Yes,0.333333,Medium,Low,Public,Neutral,0.5,No,'High School',Far,Male,0.261905,6
0.577578,0.571429,0.725,Medium,Medium,Yes,0.5,0.62,High,Yes,0.5,Medium,Medium,Public,Negative,0,No,College,Near,Male,0.309524,10
0.578579,0.238095,0.575,High,Low,Yes,0.166667,0.34,Medium,Yes,0.166667,Medium,Medium,Public,Positive,0.333333,No,Postgraduate,Near,Male,0.190476,3
0.57958,0.619048,0.075,Medium,High,No,0.333333,0.02,Low,Yes,0,Low,Medium,Public,Positive,0.333333,No,Postgraduate,Moderate,Male,0.142857,2
0.580581,0.5,0.125,Medium,Medium,Yes,0.5,0.9,Low,Yes,0.5,Low,Medium,Public,Positive,0.333333,No,'High School',Moderate,Female,0.166667,6
0.581582,0.404762,0.6,Medium,High,No,0.333333,0.42,Medium,Yes,0.666667,Medium,Low,Public,Positive,0.333333,No,'High School',Near,Female,0.261905,10
0.582583,0.547619,0.275,Medium,Low,No,0.833333,0.6,Medium,Yes,0.333333,Medium,High,Private,Positive,0.5,No,'High School',Near,Female,0.190476,6
0.583584,0.785714,0.075,Medium,High,Yes,1,0.2,Low,Yes,0.166667,Medium,Medium,Public,Negative,0.666667,No,'High School',Near,Female,0.214286,9
0.584585,0.47619,0.425,Medium,Low,Yes,0.333333,0.14,Medium,Yes,0.666667,Low,Medium,Public,Negative,0.833333,No,'High School',Far,Male,0.166667,5
0.585586,0.47619,0.55,Low,Low,Yes,0.333333,0.08,High,Yes,0.5,Low,Medium,Public,Negative,0.333333,No,College,Moderate,Male,0.166667,9
0.586587,0.380952,0.325,High,Medium,No,0.166667,0.8,High,Yes,0.166667,Low,Medium,Private,Positive,0.666667,No,'High School',Near,Male,0.214286,5
0.587588,0.333333,0.725,Low,Medium,Yes,0.833333,0.64,Low,Yes,0.166667,Medium,Medium,Public,Neutral,0.5,No,College,Near,Male,0.190476,2
0.588589,0.571429,0.65,Medium,Medium,Yes,0.5,0.62,Low,Yes,0.166667,High,Low,Public,Positive,0.166667,No,'High School',Near,Male,0.261905,1
0.58959,0.333333,0.325,Medium,High,No,0.5,0.92,Low,Yes,0.166667,Low,Medium,Public,Negative,0.333333,No,College,Near,Male,0.142857,9
0.590591,0.452381,0.75,Medium,Medium,Yes,0.5,0.16,High,Yes,0.166667,High,High,Private,Neutral,0.666667,No,'High School',Near,Male,0.285714,10
0.591592,0.455896,0.65,High,Medium,Yes,0.5,0.18,Low,Yes,0.5,Medium,Medium,Public,Positive,0.5,No,Postgraduate,Moderate,Male,0.238095,7
0.592593,0.52381,0.625,High,Low,Yes,0.333333,0.18,Low,Yes,0.166667,Medium,Medium,Public,Negative,0.166667,No,'High School',Near,Male,0.238095,3
0.593594,0.5,0.55,High,Medium,Yes,0.5,0.42,Low,Yes,0.166667,Medium,Medium,Private,Positive,0.5,No,'High School',Near,Female,0.261905,6
0.594595,0.595238,0,Medium,Medium,Yes,0.5,0.88,High,Yes,0.5,High,Medium,Public,Positive,0.333333,No,'High School',Moderate,Female,0.238095,10
0.595596,0.380952,0.7,Medium,Medium,Yes,0.666667,0.88,Medium,Yes,0.833333,Medium,Medium,Public,Neutral,0.333333,Yes,College,Near,Female,0.285714,4
0.596597,0.404762,0.375,High,Medium,Yes,0.166667,0.6,Medium,Yes,0.333333,Low,High,Public,Neutral,0.5,No,'High School',Near,Female,0.214286,9
0.597598,0.309524,0.95,High,High,Yes,0.5,0.66,Medium,No,0.5,Low,Medium,Public,Positive,0.5,No,College,Near,Male,0.333333,2
0.598599,0.380952,0.825,High,Low,No,0.333333,0.9,Medium,Yes,0.166667,Low,Medium,Public,Positive,0.666667,No,'High School',Near,Male,0.261905,4
0.5996,0.5,0.6,High,Medium,No,0.5,0.62,Medium,Yes,0.166667,Medium,Low,Private,Positive,0.5,No,'High School',Moderate,Male,0.261905,1
0.600601,0.571429,0.25,Low,Medium,Yes,0.666667,0.22,Low,No,0.5,Low,Medium,Public,Positive,0.666667,No,College,Moderate,Female,0.142857,7
0.601602,0.309524,0.2,Low,Medium,Yes,0.333333,0.7,Medium,Yes,0.252798,Medium,Medium,Public,Neutral,0.5,No,'High School',Near,Female,0.119048,4
0.602603,0.571429,0.35,High,High,Yes,0.833333,0.76,Medium,Yes,0.5,Medium,High,Public,Neutral,0.505735,Yes,'High School',Near,Male,0.285714,5
0.603604,0.642857,0.475,High,Medium,Yes,0,0.64,Medium,Yes,0,Medium,Medium,Private,Positive,0.5,No,'High School',Near,Male,0.285714,1
0.604605,0.5,0.3,High,Medium,Yes,0.833333,0.28,Low,Yes,0.166667,Medium,Medium,Public,Negative,0.333333,No,College,Near,Female,0.190476,2
0.605606,0.714286,0.525,Medium,Medium,No,0.833333,0.4,Low,Yes,0.252798,Low,Medium,Public,Neutral,0.666667,No,Postgraduate,Near,Female,0.285714,4
0.606607,0.333333,0.175,Medium,High,Yes,0.333333,0.48,High,Yes,0,High,Medium,Public,Positive,0.333333,No,Postgraduate,Near,Female,0.190476,2
0.607608,0.285714,0.975,Medium,Medium,Yes,0.333333,0.14,Medium,Yes,0.166667,Low,Medium,Public,Negative,0.833333,No,College,Near,Male,0.238095,1
0.608609,0.190476,0.1,Medium,Medium,No,0.166667,0.46,Medium,Yes,0.166667,Medium,Medium,Public,Positive,0.666667,No,College,Near,Male,0.071429,10
0.60961,0.666667,0.925,Medium,Medium,No,0.666667,0.16,Medium,Yes,0.166667,High,Medium,Private,Negative,0.666667,No,College,Moderate,Female,0.333333,1
0.610611,0.547619,0.925,High,Low,No,0.5,0.5,Low,Yes,0.166667,Medium,Medium,Public,Negative,0.333333,No,'High School',Moderate,Female,0.261905,6
0.611612,0.452381,0.525,Medium,Low,Yes,0.333333,0.06,Low,Yes,0,Medium,Low,Public,Neutral,0.666667,No,'High School',Far,Female,0.119048,2
0.612613,0.5,0.725,Medium,High,Yes,0.166667,0.94,Medium,Yes,0.333333,Medium,Medium,Private,Neutral,0.833333,No,'High School',Near,Male,0.333333,3
0.613614,0.285714,0.425,Medium,Medium,Yes,1,0.24,Medium,Yes,0.166667,High,Medium,Private,Neutral,0.666667,No,College,Moderate,Male,0.166667,?
0.614615,0.809524,0.625,Medium,High,Yes,0.333333,0.46,High,Yes,0.166667,High,Medium,Public,Negative,0.833333,No,'High School',Moderate,Female,0.380952,3
0.615616,0.47619,0.35,Medium,Low,Yes,0.5,0.04,Low,Yes,0.166667,High,Medium,Public,Negative,0.666667,No,'High School',Far,Male,0.095238,6
0.616617,0.47619,0.3,High,Medium,No,0.5,0.2,Low,Yes,0,Low,Medium,Private,Neutral,0.505735,No,Postgraduate,Near,Male,0.166667,7
0.617618,0.547619,0.575,Low,High,No,0.333333,0.7,Low,Yes,0.166667,Low,High,Public,Neutral,0.666667,No,'High School',Moderate,Female,0.238095,10
0.618619,0.52381,0.5,Medium,Low,Yes,0.333333,0.12,Medium,Yes,0.5,Medium,Medium,Public,Positive,0.333333,Yes,'High School',Near,Male,0.190476,6
0.61962,0.47619,0.575,High,Medium,Yes,0.333333,0.62,Low,Yes,0.5,High,Medium,Public,Negative,0.666667,No,Postgraduate,Moderate,Male,0.309524,2
0.620621,0.333333,0.275,Medium,High,No,0.666667,0,Low,Yes,0.166667,Medium,Medium,Public,Neutral,0.333333,Yes,Postgraduate,Near,Male,0.095238,9
0.621622,0.52381,0.375,Low,High,Yes,0.333333,0.46,Low,Yes,0.166667,Low,Medium,Public,Positive,0.333333,No,'High School',Moderate,Female,0.166667,2
0.622623,0.714286,0.075,Medium,High,No,0.833333,0.72,Low,Yes,0,High,Medium,Public,Neutral,0.5,No,Postgraduate,Moderate,Male,0.238095,6
0.623624,0.642857,0.05,Medium,High,No,0.333333,0.92,Medium,Yes,0.666667,Medium,High,Public,Positive,0.5,No,'High School',Near,Male,0.285714,9
0.624625,0.690476,0.25,Low,Medium,No,0.666667,0.5,Medium,Yes,0.166667,Medium,Medium,Private,Positive,0.333333,No,'High School',Near,Female,0.214286,9
0.625626,0.380952,0.075,Medium,Medium,No,0,0.84,Medium,Yes,0.333333,Low,Medium,Public,Negative,0.666667,No,'High School',Near,Female,0.119048,2
0.626627,0.309524,0.1,High,High,Yes,0.333333,0.8,Low,Yes,0,Low,High,Private,Negative,0.333333,No,'High School',Near,Female,0.119048,9
0.627628,0.428571,0.825,Medium,High,No,0.333333,0.3,Medium,Yes,0,Medium,High,Public,Neutral,0.5,No,'High School',Near,Male,0.261905,8
0.628629,0.452381,0.05,Low,Medium,Yes,0.166667,0.88,High,Yes,0.5,Medium,Medium,Public,Neutral,0.5,No,Postgraduate,Near,Male,0.190476,7
0.62963,0.619048,0.65,Medium,Medium,Yes,0.5,0.64,Low,Yes,0.333333,Low,Medium,Public,Positive,0.5,No,'High School',Moderate,Female,0.285714,8
0.630631,0.214286,0.275,Medium,Medium,Yes,0.5,0.1,High,Yes,0.333333,Low,High,Public,Positive,0.5,No,College,Near,Female,0.119048,10
0.631632,0.666667,0.875,Low,Medium,Yes,0,0.94,Medium,Yes,0,Medium,Medium,Private,Positive,0.666667,Yes,College,Moderate,Female,0.333333,8
0.632633,0.428571,0.475,High,Medium,Yes,1,0.18,Low,Yes,0.166667,Medium,Medium,Public,Neutral,0.5,Yes,College,Moderate,Male,0.166667,1
0.633634,0.380952,0.3,Medium,High,Yes,0.5,0.48,Low,Yes,0.333333,High,Medium,Public,Positive,0.666667,No,Postgraduate,Far,Male,0.214286,9
0.634635,0.309524,0.525,Medium,Medium,Yes,0.5,0.46,Low,No,0.166667,High,Medium,Private,Positive,0.5,Yes,'High School',Moderate,Male,0.119048,6
0.635636,0.214286,0.375,High,Medium,No,0.833333,0.62,Medium,Yes,0.5,Low,High,Public,Negative,0.833333,No,'High School',Near,Female,0.166667,1
0.636637,0.571429,0.575,Medium,Medium,Yes,0.666667,0.66,Medium,Yes,0.252798,Low,Medium,Public,Neutral,0.166667,Yes,'High School',Moderate,Female,0.214286,1
0.637638,0.452381,0.125,Medium,Low,Yes,0.5,0.24,High,Yes,0,Medium,Medium,Public,Neutral,0,Yes,Postgraduate,Near,Male,0.52381,7
0.638639,0.261905,1,Medium,Medium,Yes,0,0.36,Medium,Yes,0.333333,Low,Medium,Public,Neutral,0.5,No,College,Far,Male,0.238095,10
0.63964,0.261905,0.425,Medium,Medium,Yes,0.666667,0.14,Medium,Yes,0.333333,Low,High,Public,Negative,0.333333,No,College,Moderate,Male,0.119048,2
0.640641,0.404762,0.35,Medium,Medium,No,0.333333,0.12,Medium,Yes,0.166667,Medium,Medium,Private,Positive,0.5,No,College,Moderate,Male,0.142857,6
0.641642,0.690476,0.7,Medium,Medium,No,0.833333,0.82,Medium,Yes,0.5,Medium,Low,Public,Positive,0.5,No,'High School',Near,Female,0.357143,5
0.642643,0.404762,0.375,Medium,Medium,Yes,0.333333,0.76,Low,Yes,0.333333,Medium,High,Public,Negative,0.166667,Yes,Postgraduate,Near,Female,0.190476,5
0.643644,0.238095,0.825,Medium,Medium,Yes,0.333333,0.44,Low,Yes,0.333333,Low,Medium,Public,Negative,0.5,No,College,Moderate,Male,0.190476,10
0.644645,0.428571,0.45,High,High,No,0.166667,0.1,Medium,Yes,0,Medium,Medium,Public,Neutral,0.666667,No,'High School',Moderate,Male,0.190476,6
0.645646,0.404762,0.725,Medium,High,Yes,0.166667,0.44,Low,Yes,0.666667,Medium,Low,Public,Neutral,0.333333,No,'High School',Near,Female,0.261905,8
0.646647,0.071429,0.1,Medium,High,Yes,0.5,0.3,Medium,Yes,0.166667,Medium,High,Public,Negative,0.666667,No,'High School',Far,Male,0.02381,5
0.647648,0.452381,0.85,Medium,Medium,No,0.5,0.78,Medium,Yes,0,Low,Medium,Private,Neutral,0.166667,No,'High School',Near,Male,0.238095,8
0.648649,0.428571,0.725,Medium,Medium,No,0.333333,0.1,Medium,Yes,0.166667,Low,Medium,Private,Neutral,0.5,No,Postgraduate,Moderate,Female,0.214286,5
0.64965,0.547619,0.2,Medium,Medium,Yes,1,0.46,Low,Yes,0.166667,Medium,Medium,Public,Neutral,0.666667,Yes,'High School',Moderate,Female,0.142857,?
0.650651,0.714286,0.15,Low,High,Yes,0.666667,0.6,Low,Yes,0,Low,Low,Private,Negative,0.666667,No,'High School',Near,Female,0.166667,6
0.651652,0.619048,0.325,Medium,Medium,No,0.5,0.98,Low,Yes,0.166667,Low,Medium,Public,Positive,0.666667,No,College,Near,Male,0.238095,8
0.652653,0.404762,0.975,Medium,High,Yes,0,0.08,Low,Yes,0,Medium,Medium,Public,Positive,0.5,No,Postgraduate,Near,Male,0.285714,2
0.653654,0.285714,0.25,Medium,Medium,No,0.666667,0.12,Medium,Yes,0.333333,Medium,High,Public,Neutral,0,No,'High School',Near,Male,0.095238,7
0.654655,0.809524,0.45,High,Low,Yes,1,0.98,Medium,Yes,0.166667,Low,Medium,Private,Positive,0.333333,No,'High School',Near,Male,0.333333,3
0.655656,0.452381,0.025,Medium,Low,Yes,0.5,0.4,Low,Yes,0.166667,Medium,Medium,Private,Positive,0.666667,No,'High School',Moderate,Female,0.095238,9
0.656657,0.452381,0.4,High,High,Yes,0.333333,0.74,Low,Yes,0.166667,Low,Medium,Public,Negative,0.666667,No,Postgraduate,Moderate,Male,0.238095,10
0.657658,0.452381,0.575,High,Medium,No,0.5,0.78,Medium,Yes,0.5,Low,High,Private,Negative,0.666667,No,'High School',Near,Female,0.261905,7
0.658659,0.47619,0.95,High,Medium,No,0.166667,0.32,Low,Yes,0.5,High,High,Public,Positive,0.833333,No,'High School',Near,Male,0.357143,3
0.65966,0.428571,0.525,High,High,No,0.666667,0.22,Low,Yes,0.5,Medium,Medium,Private,Negative,0.833333,No,Postgraduate,Near,Male,0.261905,8
0.660661,0.380952,0.825,Medium,Medium,Yes,0.833333,0.28,Medium,Yes,0.166667,Medium,Medium,Public,Neutral,0.5,No,'High School',Moderate,Female,0.214286,10
0.661662,0.380952,0.55,Medium,Low,No,0.333333,0.76,Low,Yes,0.333333,Low,Low,Private,Neutral,0.5,No,Postgraduate,Near,Male,0.166667,2
0.662663,0.452381,0.05,Low,Low,No,0.333333,0.84,High,Yes,0.333333,Medium,Medium,Public,Positive,0.5,No,Postgraduate,Moderate,Male,0.119048,10
0.663664,0.380952,0.325,High,Medium,Yes,0.5,0.7,Medium,Yes,0.333333,Low,Medium,Public,Positive,0.333333,No,'High School',Near,Male,0.190476,8
0.664665,0.357143,0.575,Medium,Medium,No,0.333333,0.44,Medium,Yes,0.166667,Low,High,Public,Positive,0.333333,No,College,Near,Male,0.190476,7
0.665666,0.47619,0.95,Medium,High,No,0.166667,0.26,Low,Yes,0,Low,High,Public,Neutral,0.333333,No,Postgraduate,Near,Male,0.285714,5
0.666667,0.404762,0.85,Medium,Medium,No,0.333333,0.42,Low,Yes,0.333333,High,Medium,Public,Neutral,0.5,No,Postgraduate,Far,Male,0.261905,4
0.667668,0.666667,0.225,Medium,High,No,0.333333,0.92,Low,Yes,0.166667,High,Medium,Public,Positive,0.666667,No,'High School',Near,Female,0.285714,10
0.668669,0.071429,0.225,Medium,Low,No,0.833333,0.86,Low,No,0.333333,Medium,High,Private,Negative,0.505735,No,'High School',Moderate,Female,0,10
0.66967,0.619048,0.2,Medium,Medium,No,0.833333,0.32,Medium,Yes,0.5,High,Medium,Private,Positive,0.5,No,'High School',Far,Male,0.214286,1
0.670671,0.619048,0.925,High,High,Yes,0.833333,0.32,Low,Yes,0.166667,Low,Medium,Public,Positive,0.5,No,'High School',Far,Male,0.357143,4
0.671672,0.166667,0.85,High,Low,No,0.666667,0.78,High,Yes,0,Medium,Medium,Public,Neutral,0.333333,No,'High School',Near,Female,0.190476,6
0.672673,0.404762,0.775,High,High,Yes,0.5,0.42,High,Yes,0,Medium,Medium,Public,Neutral,0.5,No,'High School',Near,Male,0.285714,6
0.673674,0.404762,0.4,High,High,No,0.333333,0.58,Medium,Yes,0.252798,Medium,Medium,Private,Positive,0.333333,No,Postgraduate,Far,Female,0.214286,2
0.674675,0.261905,0.5,Low,Low,No,0.833333,0.42,High,Yes,0.166667,Low,Low,Private,Positive,0.5,Yes,'High School',Moderate,Female,0.047619,9
0.675676,0.333333,0.475,High,Medium,Yes,0.666667,0.24,Low,Yes,0.166667,Low,Low,Public,Positive,0.5,No,College,Near,Male,0.166667,1
0.676677,0.285714,0.25,Medium,Medium,No,0.166667,0.18,Medium,Yes,0,Medium,High,Private,Positive,0.333333,No,Postgraduate,Near,Female,0.119048,4
0.677678,0.714286,0.5,High,High,Yes,0.333333,0.14,Low,Yes,0.166667,Medium,High,Private,Positive,0.5,No,'High School',Near,Female,0.333333,4
0.678679,0.595238,0.025,Low,Medium,Yes,0.166667,0.02,High,Yes,0,Low,Medium,Private,Neutral,0.833333,No,'High School',Moderate,Female,0.095238,2
0.67968,0.642857,0.125,Medium,Medium,Yes,0,0.28,Medium,Yes,1,Medium,High,Public,Neutral,0.5,No,Postgraduate,Near,Male,0.285714,8
0.680681,0.547619,0.875,High,Low,Yes,0.666667,0.18,Medium,Yes,0.333333,Low,High,Public,Negative,0.166667,No,College,Near,Male,0.285714,2
0.681682,0.285714,0.75,Medium,Medium,No,0.166667,0.26,Medium,Yes,0,Low,Medium,Public,Neutral,0.666667,No,'High School',Moderate,Female,0.142857,2
0.682683,0.380952,0.425,Medium,Medium,Yes,0.333333,0.08,Low,Yes,0.5,Low,Medium,Public,Neutral,0.666667,No,'High School',Moderate,Male,0.142857,2
0.683684,0.52381,0.525,Medium,Low,Yes,0.5,0.34,Medium,Yes,0,Medium,High,Private,Positive,0.833333,No,'High School',Moderate,Female,0.214286,1
0.684685,0.285714,0.375,Medium,High,Yes,0.5,0.52,High,Yes,0.166667,Medium,High,Public,Negative,0.166667,No,'High School',Moderate,Male,0.142857,5
0.685686,0.547619,0.75,Medium,Medium,Yes,0.333333,0.94,Low,Yes,0.166667,High,High,Public,Positive,0.666667,No,'High School',Near,Male,0.333333,4
0.686687,0.428571,0.775,Medium,Low,No,0.833333,0.34,Medium,Yes,0,Medium,Medium,Private,Negative,0.5,No,College,Near,Female,0.190476,2
0.687688,0.404762,0.775,Medium,Medium,No,0.166667,0.04,Medium,Yes,0.333333,Medium,Medium,Public,Negative,0.666667,No,'High School',Moderate,Female,0.190476,1
0.688689,0.547619,0.725,Medium,High,Yes,0.166667,0.36,Medium,Yes,0,Low,High,Public,Positive,0.333333,No,Postgraduate,Near,Female,0.309524,1
0.68969,0.52381,0.2,Low,Low,No,0.666667,0.82,Medium,Yes,0.833333,Low,Medium,Public,Negative,0.833333,No,Postgraduate,Near,Female,0.190476,2
0.690691,0.404762,0.35,Medium,Low,Yes,0.333333,0.34,High,Yes,0.333333,Low,High,Public,Neutral,0.333333,No,'High School',Near,Male,0.142857,1
0.691692,0.619048,0.475,Medium,Low,No,0.333333,0.3,Low,Yes,0,Medium,Medium,Private,Negative,0.333333,No,College,Near,Male,0.190476,9
0.692693,0.309524,0.325,Medium,Low,Yes,0.166667,0.92,Low,Yes,0.166667,Low,Medium,Public,Negative,0.5,No,'High School',Moderate,Female,0.095238,2
0.693694,0.547619,0.75,Medium,Medium,No,0.666667,0.3,Medium,Yes,0.666667,Low,Medium,Public,Neutral,0.666667,No,'High School',Moderate,Male,0.285714,3
0.694695,0.547619,0.325,Medium,Medium,Yes,0.5,0.98,Medium,Yes,0.5,Medium,High,Private,Neutral,0.5,No,'High School',Near,Female,0.261905,9
0.695696,0.404762,0.15,High,Medium,No,0.5,0.84,Medium,Yes,0.333333,Low,Medium,Private,Neutral,0.666667,No,'High School',Moderate,Male,0.166667,5
0.696697,0.5,0.4,High,Medium,Yes,0.333333,0.68,High,Yes,0.333333,Medium,High,Public,Neutral,0.5,No,'High School',Near,Male,0.285714,8
0.697698,0.261905,0.975,High,High,Yes,0.333333,0.6,Medium,Yes,0,High,Medium,Public,Positive,0.5,No,'High School',Moderate,Male,0.285714,7
0.698699,0.595238,0.225,Medium,Medium,Yes,0.5,0.22,Medium,Yes,0.166667,High,High,Public,Positive,0.333333,No,College,Near,Male,0.214286,6
0.6997,0.428571,0.6,Medium,High,Yes,0.666667,0.74,Low,Yes,0.333333,Low,High,Public,Positive,0.5,No,'High School',Moderate,Female,0.261905,2
0.700701,0.380952,0.425,Low,Medium,No,0.833333,0.34,Low,Yes,0,Low,High,Public,Neutral,0.833333,Yes,'High School',Near,Female,0.095238,4
0.701702,0.595238,0.075,Medium,High,Yes,0.833333,0.48,Medium,Yes,0.166667,Low,Medium,Private,Positive,0.666667,No,'High School',Near,Female,0.214286,9
0.702703,0.357143,0.5,High,Medium,No,0.666667,0.1,High,No,0,Low,Medium,Public,Positive,1,No,College,Moderate,Male,0.166667,7
0.703704,0.261905,0.7,Medium,Medium,No,0.666667,0.3,Medium,Yes,0,Low,Medium,Public,Positive,0.666667,No,'High School',Near,Male,0.166667,3
0.704705,0.238095,0.525,Medium,High,Yes,0.166667,0.52,Medium,Yes,0.166667,Low,Medium,Public,Neutral,0.5,No,Postgraduate,Far,Male,0.166667,6
0.705706,0.547619,0.875,Medium,Low,Yes,0.333333,0.46,Medium,No,0.5,Low,Medium,Public,Positive,0.333333,No,'High School',Moderate,Male,0.261905,8
0.706707,0.261905,0.3,Medium,Medium,No,0.666667,0.34,Low,Yes,0.666667,Medium,Medium,Public,Neutral,0.666667,No,'High School',Near,Male,0.119048,8
0.707708,0.714286,0.075,Low,High,Yes,0.5,0.48,Low,Yes,0.5,Medium,Medium,Public,Negative,0.333333,No,College,Moderate,Male,0.190476,8
0.708709,0.166667,0.925,Medium,High,Yes,0.666667,0.74,Medium,Yes,0,Medium,Medium,Public,Positive,0.333333,Yes,'High School',Near,Male,0.214286,8
0.70971,0.690476,0.375,Medium,Medium,No,0.666667,0.46,High,Yes,0.166667,Medium,Medium,Public,Negative,0.5,No,College,Near,Male,0.261905,10
0.710711,0.47619,0.575,Medium,Medium,Yes,0.666667,0.5,High,Yes,0.166667,Low,High,Public,Neutral,0.333333,No,'High School',Far,Male,0.214286,6
0.711712,0.428571,0.8,Medium,Medium,Yes,0.166667,0.7,Medium,Yes,0.166667,Medium,High,Private,Neutral,0.666667,No,'High School',Near,Male,0.285714,10
0.712713,0.380952,0.325,High,High,Yes,0.5,0.84,Medium,Yes,0.333333,High,Medium,Private,Negative,0.333333,No,'High School',Moderate,Male,0.214286,3
0.713714,0.5,0.725,High,Medium,No,0.333333,0.52,Medium,Yes,0.333333,Low,Medium,Public,Neutral,0.666667,No,'High School',Near,Male,0.285714,9
0.714715,0.452381,0.125,High,High,Yes,0.333333,0.94,Medium,Yes,0.252798,Low,Low,Private,Negative,0.5,No,'High School',Moderate,Female,0.166667,3
0.715716,0.619048,0.3,Medium,Low,No,0,0.36,Medium,No,0,Medium,High,Public,Negative,0.5,Yes,College,Near,Male,0.119048,4
0.716717,0.47619,0.15,Medium,Medium,Yes,0.5,0.26,Medium,Yes,0,High,Medium,Public,Neutral,0.5,No,'High School',Near,Female,0.142857,10
0.717718,0.47619,0.8,High,Medium,Yes,0,0.7,Low,Yes,0.166667,High,Medium,Public,Negative,0.5,No,'High School',Far,Male,0.261905,1
0.718719,0.404762,0.225,Low,Medium,No,0.666667,0.18,Low,No,0.166667,Low,Medium,Public,Positive,0.666667,No,'High School',Near,Female,0.047619,2
0.71972,0.452381,0.725,Low,Medium,Yes,0.833333,0.9,Medium,Yes,0.5,Low,Medium,Public,Positive,0.5,No,'High School',Near,Male,0.261905,6
0.720721,0.5,0.95,Medium,Low,Yes,0.666667,0.38,Medium,Yes,0.666667,High,Medium,Private,Positive,0.333333,No,'High School',Near,Female,0.333333,?
0.721722,0.214286,0.525,Medium,Low,Yes,0.5,0.7,Low,Yes,0.166667,Low,Medium,Public,Neutral,0.333333,No,College,Near,Male,0.119048,9
0.722723,0.261905,0.55,Low,Medium,No,0.833333,0.58,High,Yes,0,Low,Medium,Private,Positive,0.505735,No,College,Moderate,Female,0.119048,8
0.723724,0.547619,0.45,High,Low,Yes,0.5,0.06,High,Yes,0,Medium,Medium,Public,Neutral,0.666667,Yes,'High School',Near,Male,0.190476,2
0.724725,0.47619,0.325,Medium,Medium,No,0.333333,0.7,Medium,Yes,1,Medium,High,Public,Neutral,0.833333,No,College,Near,Male,0.285714,2
0.725726,0.428571,0.475,Medium,High,Yes,0.5,0.8,Medium,Yes,0.166667,Medium,Medium,Public,Negative,0.666667,No,College,Far,Female,0.238095,8
0.726727,0.452381,0.6,Medium,Medium,Yes,1,0.98,Low,Yes,0.333333,Medium,Medium,Private,Positive,0.5,No,'High School',Moderate,Male,0.261905,8
0.727728,0.5,0.975,Medium,Medium,Yes,0.166667,0.42,High,Yes,0,Medium,High,Public,Neutral,0.666667,No,College,Near,Female,0.333333,1
0.728729,0.380952,0.95,Low,High,No,0.166667,0.5,Low,Yes,0.166667,Low,Low,Private,Positive,0.505735,Yes,College,Near,Male,0.214286,5
0.72973,0.333333,0.85,Low,Medium,No,0.666667,0.88,Low,Yes,0.166667,High,Medium,Public,Positive,0.666667,No,'High School',Moderate,Male,0.238095,2
0.730731,0.47619,0.9,Medium,High,No,0.5,0.26,Medium,Yes,0.166667,Medium,Medium,Private,Negative,0.333333,No,Postgraduate,Far,Female,0.285714,1
0.731732,0.309524,0.475,High,Medium,Yes,0.333333,0.18,Medium,Yes,0.833333,Medium,High,Public,Positive,0.5,No,Postgraduate,Far,Male,0.238095,3
0.732733,0.5,0.65,Medium,Medium,Yes,0.166667,0.14,High,Yes,0.333333,Medium,Medium,Public,Positive,0.5,No,College,Moderate,Male,0.261905,3
0.733734,0.214286,0.9,Medium,Medium,No,0,0.98,Medium,Yes,0.166667,Medium,Medium,Private,Negative,0.833333,No,College,Near,Female,0.238095,10
0.734735,0.595238,0.4,Medium,Medium,No,0.166667,0.28,Low,Yes,0,Medium,Medium,Public,Positive,0.833333,No,College,Far,Female,0.190476,9
0.735736,0.52381,0.95,Medium,Medium,No,0.833333,0.76,High,Yes,0.166667,Low,Medium,Public,Negative,0.666667,No,Postgraduate,Moderate,Female,0.333333,10
0.736737,0.5,0.425,Medium,Medium,Yes,0.5,0.44,Medium,Yes,0.333333,Medium,High,Public,Neutral,0.5,No,'High School',Near,Male,0.214286,1
0.737738,0.595238,0.6,Low,High,No,0,0.24,Medium,No,0.5,High,High,Public,Positive,0.333333,No,'High School',Near,Male,0.285714,2
0.738739,0.690476,0.495779,High,Medium,Yes,0.833333,0.92,Medium,Yes,0.166667,Medium,High,Private,Neutral,0.5,Yes,'High School',Near,Male,0.357143,9
0.73974,0.595238,0.95,Medium,Low,Yes,0.833333,0.46,High,Yes,0.166667,High,Low,Public,Neutral,1,No,Postgraduate,Moderate,Male,0.357143,5
0.740741,0.190476,0.25,Medium,Medium,No,0.833333,0.56,Low,Yes,0.166667,Medium,Low,Public,Neutral,0.333333,No,'High School',Near,Female,0.047619,9
0.741742,0.261905,0.75,Medium,High,No,0.333333,0.22,Low,Yes,0.333333,Medium,High,Public,Neutral,0.5,No,College,Near,Male,0.214286,6
0.742743,0.357143,0.525,High,Medium,Yes,0.5,0.32,Medium,Yes,0.5,High,High,Private,Positive,0.666667,No,'High School',Near,Male,0.261905,10
0.743744,0.452381,0.275,Medium,Low,No,0.5,0.74,High,Yes,0.166667,Medium,Medium,Public,Negative,0.833333,No,'High School',Near,Male,0.166667,10
0.744745,0.52381,0.775,Low,High,Yes,0.833333,0.34,Low,Yes,0.333333,Low,Medium,Public,Neutral,0.666667,No,'High School',Near,Female,0.285714,3
0.745746,0.357143,0.55,High,Medium,Yes,0.333333,0.5,Low,Yes,0.252798,Medium,Medium,Public,Neutral,0.5,No,College,Moderate,Female,0.238095,8
0.746747,0.47619,0.65,Medium,Low,No,0.333333,0.12,Medium,Yes,0.166667,Low,High,Private,Negative,0.333333,No,College,Near,Female,0.190476,9
0.747748,0.333333,0.325,Low,High,Yes,0.666667,0.86,Medium,Yes,0.166667,Low,High,Public,Positive,0.666667,No,College,Far,Male,0.166667,2
0.748749,0.357143,0.475,Low,Medium,Yes,0.833333,0.74,Medium,Yes,0.166667,Low,Medium,Public,Neutral,0.333333,No,College,Moderate,Female,0.142857,9
0.74975,0.261905,0.625,High,High,Yes,0.5,0.76,High,Yes,0.166667,Low,Medium,Public,Neutral,0,No,College,Far,Female,0.214286,4
0.750751,0.309524,0.4,High,Medium,Yes,0.666667,0.18,Low,Yes,0.5,Medium,Medium,Private,Neutral,0.833333,No,'High School',Moderate,Male,0.166667,8
0.751752,0.261905,0.2,High,High,Yes,0.5,0.5,Medium,Yes,0.166667,Medium,Low,Private,Positive,0.666667,No,'High School',Near,Male,0.142857,5
0.752753,0.309524,0.95,High,High,No,0.5,0.02,Medium,Yes,0,Medium,Low,Public,Positive,0.166667,Yes,'High School',Near,Male,0.214286,6
0.753754,0.595238,0.5,Medium,Low,Yes,0.333333,0.32,Medium,Yes,0.333333,High,Medium,Public,Neutral,0.666667,No,Postgraduate,Near,Male,0.285714,4
0.754755,0.309524,0.725,Medium,Low,Yes,0.166667,0.34,Low,No,0.5,Low,Low,Private,Neutral,0.5,No,'High School',Far,Female,0.119048,5
0.755756,0.833333,0.4,Medium,Medium,Yes,0.333333,0.92,Medium,Yes,0.166667,Low,Medium,Private,Neutral,0.333333,No,College,Near,Male,0.309524,1
0.756757,0.52381,0.35,High,Low,No,0.333333,1,Low,Yes,0.333333,High,Low,Private,Positive,0.5,No,'High School',Near,Male,0.238095,3
0.757758,0.47619,0.4,Medium,Medium,No,0.5,0.62,Medium,Yes,0,Medium,High,Private,Positive,0.333333,No,College,Moderate,Female,0.214286,4
0.758759,0.333333,0.4,High,High,Yes,0.833333,0.52,Medium,Yes,0.166667,Medium,High,Public,Neutral,0.333333,No,Postgraduate,Far,Female,0.214286,1
0.75976,0.547619,0.55,Low,Medium,Yes,0.5,0.44,Medium,Yes,0,Medium,High,Public,Positive,0.333333,No,Postgraduate,Moderate,Female,0.238095,3
0.760761,0.380952,0.55,High,Medium,No,0.333333,0.02,Medium,Yes,0.166667,Low,Medium,Public,Positive,0.5,No,Postgraduate,Moderate,Male,0.190476,4
0.761762,0.47619,0.5,Medium,Medium,Yes,0.666667,0.8,Medium,Yes,0,Medium,Medium,Public,Negative,0.666667,No,College,Near,Male,0.238095,9
0.762763,0.809524,0.125,High,Medium,Yes,0.5,0.68,High,Yes,0,Medium,Medium,Public,Positive,0.333333,No,'High School',Moderate,Male,0.285714,3
0.763764,0.428571,0.5,Low,Low,No,0.666667,0.64,Medium,Yes,0.833333,Low,Low,Public,Positive,0.5,No,College,Near,Male,0.214286,3
0.764765,0.619048,0.175,Low,Medium,Yes,0.333333,0.8,Medium,Yes,0.333333,High,High,Private,Neutral,0.5,No,'High School',Moderate,Male,0.214286,4
0.765766,0.357143,0.125,Low,High,No,0.833333,0.92,Low,Yes,0.333333,Low,Medium,Public,Negative,0.333333,No,'High School',Near,Male,0.095238,9
0.766767,0.452381,0.925,Medium,High,No,0.833333,0.38,Low,Yes,0,Low,Low,Public,Negative,0.5,Yes,'High School',Near,Male,0.214286,9
0.767768,0.714286,0.6,Medium,High,No,0.5,0.42,Low,Yes,0.666667,Low,Medium,Public,Negative,0.666667,No,'High School',Far,Male,0.285714,1
0.768769,0.357143,0.65,High,High,No,0.666667,0.98,Medium,Yes,0.666667,Low,High,Private,Neutral,0.666667,No,College,Near,Male,0.333333,8
0.76977,0.714286,0.4,Medium,Medium,Yes,0.833333,0.66,Medium,Yes,0.333333,High,Medium,Private,Negative,0.505735,No,'High School',Moderate,Female,0.285714,10
0.770771,0.547619,0.9,Low,High,No,0.333333,0.86,Medium,Yes,0.333333,Low,Medium,Public,Neutral,0.333333,No,'High School',Moderate,Female,0.857143,1
0.771772,0.380952,0.65,Medium,Medium,No,0.5,0.22,Medium,No,0.333333,High,Medium,Public,Positive,0.5,No,'High School',Moderate,Male,0.190476,2
0.772773,0.547619,0.775,Low,Low,Yes,0.5,0.32,High,Yes,0.333333,Low,High,Public,Neutral,0.5,No,'High School',Near,Male,0.261905,10
0.773774,0.595238,0.375,High,Medium,No,0.166667,0.4,Low,Yes,0,High,Low,Private,Neutral,0.333333,No,Postgraduate,Near,Male,0.238095,5
0.774775,0.547619,0.95,High,Low,No,0.666667,0.32,High,Yes,0.333333,Low,Medium,Public,Positive,0.166667,No,'High School',Moderate,Male,0.309524,6
0.775776,0.238095,0.825,High,Medium,No,0.833333,0.88,Medium,Yes,0.666667,Low,High,Public,Neutral,0.666667,No,'High School',Moderate,Male,0.261905,2
0.776777,0.357143,0.85,Medium,Medium,No,0.5,0.52,Low,Yes,0.333333,Medium,Medium,Public,Neutral,0.5,Yes,'High School',Near,Female,0.214286,10
0.777778,0.428571,0.175,Low,Medium,Yes,0.666667,0.96,Medium,Yes,0.333333,Low,Medium,Private,Negative,0.333333,No,Postgraduate,Near,Female,0.142857,5
0.778779,0.452381,0.275,Medium,Medium,Yes,0.833333,0.32,Medium,Yes,0.166667,Medium,Low,Private,Negative,0.833333,Yes,College,Near,Female,0.119048,3
0.77978,0.547619,0.275,Medium,High,Yes,0.333333,0.04,Medium,Yes,0.333333,Medium,Medium,Private,Neutral,0.5,No,College,Far,Female,0.190476,7
0.780781,0.47619,0.275,Medium,Medium,Yes,0.666667,0.14,Low,No,0.333333,High,Medium,Public,Positive,0.166667,No,Postgraduate,Near,Female,0.190476,1
0.781782,0.261905,0.85,Low,High,Yes,0.333333,0.22,Medium,Yes,0.5,High,High,Public,Neutral,0.666667,No,College,Near,Male,0.261905,5
0.782783,0.5,0.025,Low,Low,Yes,0.333333,0.64,Low,Yes,0.666667,Medium,Medium,Public,Positive,0.666667,No,'High School',Moderate,Female,0.142857,3
0.783784,0.547619,0.075,High,Medium,No,0.666667,0.18,Low,Yes,0.166667,Low,Medium,Public,Neutral,0.5,Yes,'High School',Near,Male,0.095238,2
0.784785,0.52381,0.275,Medium,Medium,Yes,0.5,0.38,High,Yes,0.5,Low,Medium,Public,Positive,0.833333,Yes,'High School',Far,Female,0.190476,3
0.785786,0.595238,0.2,Medium,High,Yes,0.666667,0.8,Medium,Yes,0.666667,Low,High,Private,Neutral,0.5,No,'High School',Near,Male,0.285714,10
0.786787,0.571429,0.225,High,Medium,Yes,0.5,0.12,Medium,Yes,0.333333,Low,Medium,Private,Neutral,0.666667,No,'High School',Near,Male,0.214286,4
0.787788,0.52381,0.8,Low,Medium,No,0.666667,0.08,Medium,Yes,0,High,Low,Public,Positive,0.166667,No,Postgraduate,Near,Female,0.238095,2
0.788789,0.452381,0.575,High,Low,No,0.833333,0.54,High,Yes,0,Low,Medium,Public,Positive,0.5,Yes,'High School',Near,Male,0.214286,2
0.78979,0.214286,0,Medium,Medium,No,0.833333,0.7,Medium,Yes,0,Medium,Medium,Public,Positive,0.666667,No,Postgraduate,Near,Male,0.095238,3
0.790791,0.52381,0.425,Low,Medium,Yes,0.666667,0.92,Medium,Yes,0.252798,High,Medium,Private,Neutral,0.166667,Yes,College,Near,Male,0.214286,2
0.791792,0.47619,0.4,Medium,High,Yes,0.666667,0.66,Medium,Yes,0,Low,Medium,Public,Positive,0.833333,No,'High School',Near,Male,0.238095,6
0.792793,0.5,0.125,Low,Medium,No,0.5,0.94,Low,Yes,0.333333,Medium,High,Private,Neutral,0.666667,No,'High School',Moderate,Female,0.142857,2
0.793794,0.261905,0.675,Medium,Low,Yes,0.5,0.24,Medium,No,0.333333,Medium,Medium,Public,Neutral,0.666667,No,'High School',Near,Female,0.220989,1
0.794795,0.309524,0.7,Medium,Medium,No,0.666667,0.34,Medium,Yes,0.333333,High,Medium,Public,Neutral,0.5,No,Postgraduate,Far,Male,0.190476,8
0.795796,0.595238,0.725,Medium,Low,Yes,0.5,0.84,Medium,Yes,0.333333,Low,High,Public,Positive,0.333333,No,Postgraduate,Moderate,Male,0.333333,10
0.796797,0.452381,0.725,Medium,High,Yes,0.666667,0.82,Medium,Yes,0.333333,Medium,Medium,Public,Positive,0.5,No,'High School',Near,Female,0.333333,4
0.797798,0.547619,0,Medium,High,Yes,0.833333,0.66,High,Yes,0.333333,Medium,Low,Public,Positive,0.5,Yes,'High School',Near,Male,0.190476,2
0.798799,0.452381,0.95,Low,Medium,No,0.5,0.5,High,Yes,0.666667,Medium,Medium,Private,Positive,0.166667,No,College,Near,Male,0.333333,4
0.7998,0.452381,0.825,High,Medium,Yes,0,0.02,Low,Yes,0.166667,Medium,Medium,Public,Positive,0.5,No,'High School',Near,Male,0.261905,2
0.800801,0.595238,0.9,High,High,Yes,1,0.28,Low,Yes,0.333333,Medium,Medium,Private,Neutral,0.5,Yes,'High School',Near,Female,0.333333,5
0.801802,0.380952,0.025,Medium,Low,Yes,0.333333,0.16,Medium,Yes,0.166667,Medium,High,Public,Neutral,0.666667,No,'High School',Near,Male,0.047619,7
0.802803,0.47619,0.925,Medium,Medium,Yes,0.5,0.06,Medium,Yes,0,High,Medium,Public,Neutral,0.333333,No,'High School',Moderate,Male,0.261905,6
0.803804,0.380952,0.8,Medium,High,No,0.666667,0.78,Medium,Yes,0,Low,Low,Public,Positive,0.5,Yes,'High School',Near,Male,0.238095,2
0.804805,0.380952,0.495779,Low,Medium,Yes,0.833333,0.14,High,Yes,0.5,Low,High,Private,Neutral,0.333333,No,College,Near,Male,0.261905,4
0.805806,0.404762,0.1,Medium,Low,Yes,1,0.36,Low,Yes,0.166667,Low,Medium,Public,Positive,0.833333,No,'High School',Near,Male,0.095238,8
0.806807,0.47619,0.75,Medium,Medium,Yes,0.333333,0.98,Low,Yes,0.333333,Low,High,Public,Positive,0.333333,No,'High School',Moderate,Male,0.309524,7
0.807808,0.380952,0.95,Medium,High,Yes,0.833333,0.4,Low,Yes,0.166667,High,Medium,Private,Negative,0.333333,No,'High School',Near,Male,0.285714,7
0.808809,0.642857,0.675,Low,Low,Yes,0.5,0.14,Medium,Yes,0.333333,Medium,High,Private,Negative,0.505735,No,'High School',Moderate,Male,0.238095,4
0.80981,0.333333,0.575,High,Medium,Yes,1,0.68,Medium,Yes,0.166667,High,High,Public,Negative,0.333333,No,College,Near,Male,0.238095,1
0.810811,0.428571,0.95,Medium,High,No,0.833333,0.8,Low,No,0.166667,High,Medium,Private,Positive,0.333333,No,College,Far,Female,0.285714,7
0.811812,0.380952,0.45,Medium,High,No,0.5,0.28,Medium,Yes,0,Low,Medium,Private,Neutral,0.5,No,'High School',Near,Female,0.166667,6
0.812813,0.666667,0.6,High,Medium,Yes,0.333333,0.8,Medium,Yes,0,Medium,High,Public,Positive,0.5,No,Postgraduate,Far,Male,0.357143,8
0.813814,0.47619,0.475,High,Medium,No,0,0.28,Low,Yes,0,Low,High,Public,Negative,0.666667,No,College,Moderate,Male,0.190476,5
0.814815,0.595238,0.925,Medium,Medium,No,0.666667,0.7,Low,No,0.333333,High,Low,Public,Neutral,0.5,No,'High School',Near,Male,0.309524,8
0.815816,0.238095,0.075,High,Medium,Yes,0.833333,0.12,High,Yes,0.333333,Medium,Medium,Public,Neutral,0.5,No,'High School',Near,Female,0.095238,10
0.816817,0.5,0.5,Medium,Medium,Yes,0.666667,0.42,High,Yes,0.333333,Low,Medium,Private,Positive,0.5,No,'High School',Near,Female,0.238095,8
0.817818,0.571429,0.675,Medium,High,No,0,0.52,Low,Yes,0.166667,Low,High,Public,Positive,0.666667,No,College,Far,Male,0.285714,9
0.818819,0.452381,0.8,Medium,Low,No,0.166667,0.72,Low,Yes,0,Medium,Medium,Public,Neutral,0.333333,No,Postgraduate,Moderate,Female,0.238095,1
0.81982,0.595238,0.575,High,Low,Yes,0.666667,0.66,Medium,Yes,0.333333,Low,High,Public,Neutral,0.333333,No,College,Near,Female,0.309524,3
0.820821,0.380952,0.9,Medium,Medium,Yes,1,0.86,Medium,Yes,0.333333,Medium,Low,Public,Negative,0.666667,No,'High School',Near,Female,0.285714,6
0.821822,0.642857,0.95,Medium,Medium,Yes,0.5,0.18,Medium,Yes,0.166667,Low,Medium,Public,Positive,0.5,No,'High School',Near,Male,0.333333,4
0.822823,0.785714,0.075,Medium,High,Yes,0.833333,0.66,Medium,Yes,0.333333,Medium,Medium,Public,Negative,0.333333,No,College,Moderate,Male,0.261905,8
0.823824,0.404762,0.4,Medium,High,No,0.166667,0.12,Medium,Yes,0.166667,Low,Low,Public,Negative,0.333333,No,College,Moderate,Male,0.119048,10
0.824825,0.380952,0.025,Medium,Medium,No,0.5,0.48,High,Yes,0,Medium,Medium,Public,Neutral,0.333333,No,Postgraduate,Near,Female,0.095238,1
0.825826,0.666667,0.325,Medium,Medium,No,0.5,0.52,Medium,Yes,0.333333,Low,High,Private,Neutral,0.5,No,'High School',Near,Female,0.238095,5
0.826827,0.666667,0.525,Low,Medium,Yes,0.833333,0.02,Low,Yes,0.333333,Medium,Medium,Public,Positive,0.833333,No,Postgraduate,Near,Male,0.285714,4
0.827828,0.380952,0.9,Medium,Medium,Yes,0.333333,0.08,Medium,Yes,0.166667,Medium,Medium,Private,Positive,0.666667,No,'High School',Near,Male,0.261905,1
0.828829,0.380952,0.85,Medium,Medium,No,1,0.84,Low,Yes,0.333333,Low,Medium,Private,Negative,0.333333,No,'High School',Near,Male,0.238095,10
0.82983,0.404762,0.125,High,Medium,Yes,0.5,0.28,Medium,Yes,0.333333,High,Medium,Public,Positive,0.166667,No,'High School',Near,Male,0.166667,6
0.830831,0.455896,0.1,Medium,Low,No,0.166667,0.34,Medium,Yes,0.5,Low,Medium,Private,Positive,0.333333,Yes,'High School',Near,Male,0.02381,10
0.831832,0.309524,0.6,Medium,Medium,No,0.166667,0.64,Medium,Yes,0.5,Low,Medium,Public,Positive,0.5,No,College,Far,Male,0.190476,3
0.832833,0.309524,0.525,High,Medium,No,0.333333,0.22,Low,Yes,0,Low,Medium,Public,Positive,0.666667,No,'High School',Moderate,Male,0.142857,5
0.833834,0.333333,0.275,Low,Medium,No,0.666667,0.2,High,No,0.833333,Low,High,Public,Positive,0.666667,No,'High School',Far,Female,0.119048,6
0.834835,0.452381,0.9,Medium,Medium,No,0.333333,0.42,Medium,Yes,0.833333,Low,High,Public,Neutral,0.5,No,College,Near,Male,0.333333,4
0.835836,0.47619,0.925,Medium,High,Yes,0.333333,0.06,Low,Yes,0,Low,Medium,Public,Negative,0.5,Yes,'High School',Moderate,Male,0.214286,10
0.836837,0.666667,0.4,Medium,Medium,No,0.666667,0.92,Low,Yes,0.333333,Low,Medium,Public,Positive,0.333333,No,Postgraduate,Moderate,Male,0.857143,10
0.837838,0.309524,0.9,Medium,High,Yes,0,0.94,Low,Yes,0.333333,Medium,Medium,Public,Negative,0.5,No,'High School',Near,Female,0.285714,6
0.838839,0.595238,0.375,Low,Medium,No,0.333333,0.44,Medium,Yes,0,Low,High,Public,Neutral,0.5,No,'High School',Near,Male,0.190476,7
0.83984,0.428571,0.725,Low,Medium,Yes,0.166667,0.2,Low,Yes,0.666667,Medium,Medium,Public,Positive,0.333333,No,Postgraduate,Moderate,Female,0.261905,2
0.840841,0.452381,0.475,Medium,Low,Yes,0.333333,0.48,Low,Yes,0.333333,Low,Medium,Public,Positive,0.333333,No,'High School',Far,Male,0.142857,7
0.841842,0.547619,0.125,Medium,Medium,No,0.5,0.1,Low,Yes,0.166667,Low,High,Private,Positive,0.5,Yes,'High School',Near,Female,0.119048,7
0.842843,0.285714,0.925,High,High,No,0.5,0.4,Medium,Yes,0.166667,Low,High,Public,Neutral,0.666667,No,Postgraduate,Near,Female,0.309524,2
0.843844,0.455896,0.45,High,Medium,No,0.5,0.08,Medium,Yes,0.166667,Medium,Medium,Public,Negative,0.5,Yes,'High School',Moderate,Male,0.166667,3
0.844845,0.47619,0.725,Low,Medium,Yes,0.833333,0.7,Low,Yes,0.166667,Medium,Medium,Public,Negative,0.833333,No,College,Far,Female,0.238095,3
0.845846,0.52381,0.375,Medium,Medium,No,0.5,0.28,High,Yes,0.252798,Low,Medium,Public,Negative,0.5,Yes,'High School',Moderate,Male,0.142857,1
0.846847,0.5,0.025,Low,Low,Yes,1,0.52,High,Yes,0.166667,High,High,Public,Positive,0.333333,No,College,Near,Male,0.142857,1
0.847848,0.809524,0.1,Medium,Medium,Yes,0.490582,0.02,Medium,Yes,0.333333,Medium,Medium,Public,Negative,0.833333,Yes,'High School',Near,Male,0.190476,10
0.848849,0.357143,0.5,High,Medium,No,0.333333,0.52,Medium,Yes,0.166667,Medium,High,Public,Positive,0.666667,No,College,Near,Male,0.238095,6
0.84985,0.380952,0.7,Medium,Medium,No,1,0,Medium,Yes,0.5,Low,High,Public,Neutral,0.833333,No,College,Moderate,Female,0.214286,9
0.850851,0.357143,0.325,Low,High,Yes,0.5,0.92,Medium,Yes,0.166667,Medium,Medium,Private,Positive,0.5,No,'High School',Moderate,Female,0.220989,9
0.851852,0.380952,0.7,Medium,Medium,Yes,1,0.5,Medium,Yes,0.333333,Medium,Medium,Public,Neutral,0.5,No,'High School',Near,Male,0.238095,1
0.852853,0.357143,0.7,Low,Medium,No,0.5,0.1,Medium,Yes,0.5,Low,Low,Public,Neutral,0.505735,No,Postgraduate,Near,Male,0.190476,7
0.853854,0.619048,0.7,Medium,Medium,No,0.5,0.34,Medium,Yes,0.5,High,Medium,Public,Neutral,0.666667,No,College,Far,Male,0.309524,6
0.854855,0.666667,0.5,Medium,High,Yes,0.666667,0.04,Medium,Yes,0.666667,Low,Medium,Public,Positive,0.666667,No,'High School',Moderate,Female,0.309524,4
0.855856,0.380952,0.925,Medium,High,No,0.5,0.54,Medium,Yes,0,Low,Medium,Private,Negative,0.666667,No,College,Far,Male,0.238095,3
0.856857,0.333333,0.5,High,Low,No,0.833333,0.12,High,Yes,0.5,Medium,Medium,Public,Neutral,0.5,Yes,'High School',Near,Female,0.142857,9
0.857858,0.52381,0.45,Medium,Medium,Yes,1,0.503387,Low,Yes,0.5,Medium,Medium,Public,Negative,0.666667,No,'High School',Moderate,Male,0.214286,10
0.858859,0.380952,0.2,High,Medium,Yes,0,0.3,High,Yes,0,Medium,Medium,Private,Positive,0.333333,No,'High School',Moderate,Male,0.142857,5
0.85986,0.547619,0.3,High,Low,Yes,0.666667,0.76,High,Yes,0.5,Low,Medium,Public,Positive,0.333333,No,'High School',Near,Female,0.238095,8
0.860861,0.47619,0.05,Medium,Low,No,0.333333,0.48,High,Yes,0,Low,High,Private,Positive,0.5,Yes,Postgraduate,Far,Male,0.095238,4
0.861862,0.238095,0.625,Medium,Low,Yes,0,0.84,Low,Yes,0,Medium,High,Public,Neutral,0.166667,No,College,Near,Male,0.142857,4
0.862863,0.666667,0.25,Low,High,No,0.666667,0.94,Low,Yes,0.5,Low,High,Public,Positive,0.5,No,Postgraduate,Moderate,Male,0.285714,6
0.863864,0.714286,0.3,Medium,Medium,No,0.666667,0.96,High,Yes,0,Low,Medium,Public,Neutral,0.666667,No,College,Far,Male,0.238095,6
0.864865,0.357143,0.775,Medium,Medium,No,0.666667,0.26,High,Yes,0.333333,Medium,High,Public,Neutral,0.5,No,College,Near,Female,0.261905,3
0.865866,0.404762,0.325,Low,Medium,Yes,0.666667,0.76,Low,Yes,0.5,Low,Medium,Public,Positive,0.666667,No,College,Moderate,Male,0.166667,2
0.866867,0.5,0.25,Medium,High,Yes,0.666667,0.44,Medium,Yes,0.333333,High,Medium,Public,Neutral,0.5,No,'High School',Near,Male,0.214286,9
0.867868,0.5,0.175,High,Medium,No,0.333333,0.42,Low,Yes,0.333333,Medium,Medium,Public,Positive,0.333333,No,College,Moderate,Male,0.166667,2
0.868869,0.547619,0.775,High,Medium,No,0.5,0.86,Low,Yes,0,Medium,Medium,Public,Positive,0.333333,No,'High School',Moderate,Male,0.309524,9
0.86987,0.738095,0.125,Medium,Low,Yes,0.666667,0.14,Low,Yes,0.333333,Low,Medium,Public,Positive,0.5,No,'High School',Moderate,Female,0.166667,8
0.870871,0.428571,0.45,Medium,Medium,Yes,0.833333,0.48,Low,Yes,0.333333,Low,Medium,Public,Positive,0.833333,No,'High School',Moderate,Female,0.190476,10
0.871872,0.333333,0.5,High,Medium,No,0.5,0.6,Medium,Yes,0,Low,Low,Public,Neutral,0.833333,No,'High School',Near,Female,0.166667,7
0.872873,0.261905,0.675,Medium,Medium,Yes,0.5,0.06,Low,Yes,0.333333,Medium,Medium,Private,Neutral,0.166667,No,College,Near,Male,0.166667,5
0.873874,0.357143,0.625,Low,Medium,No,0.5,0.86,High,Yes,0.166667,Medium,High,Public,Positive,0.5,No,'High School',Near,Male,0.238095,3
0.874875,0.452381,0.8,Medium,Medium,Yes,0.166667,0.32,Medium,Yes,0.333333,Medium,Medium,Public,Negative,0.333333,Yes,College,Moderate,Male,0.238095,2
0.875876,0.714286,0.05,High,Medium,No,0.666667,0.66,Medium,Yes,0,Medium,High,Private,Neutral,0.333333,Yes,College,Near,Female,0.214286,8
0.876877,0.380952,0.3,Low,Medium,Yes,0.166667,0.92,High,Yes,0.5,High,Medium,Public,Negative,0.5,No,'High School',Moderate,Male,0.166667,2
0.877878,0.47619,0.275,Medium,Low,No,0.666667,0.72,Medium,Yes,0.333333,Medium,High,Public,Neutral,0.333333,No,College,Near,Male,0.190476,8
0.878879,0.452381,0.15,Medium,Medium,Yes,0.5,0.88,Low,Yes,0,Medium,Low,Public,Neutral,0.666667,No,'High School',Moderate,Female,0.119048,5
0.87988,0.619048,0.3,High,High,Yes,0.166667,0.06,Medium,Yes,0.166667,High,Medium,Private,Neutral,0.833333,No,Postgraduate,Near,Male,0.285714,9
0.880881,0.809524,0.3,High,High,Yes,0.166667,0.5,Medium,Yes,0.166667,Low,Medium,Public,Positive,0.833333,No,College,Near,Male,0.333333,4
0.881882,0.380952,0.525,Medium,High,No,0.333333,0.56,Medium,Yes,0.333333,Low,Medium,Private,Positive,0.333333,No,'High School',Moderate,Male,0.214286,8
0.882883,0.380952,0.675,High,Low,Yes,0.333333,0.68,Medium,Yes,0,Medium,Medium,Public,Positive,0.5,No,College,Far,Male,0.214286,7
0.883884,0.595238,0.375,Low,Medium,Yes,0.833333,0.12,Medium,Yes,0.166667,Low,Medium,Public,Positive,0.833333,No,'High School',Moderate,Male,0.190476,8
0.884885,0.547619,0.725,Low,Medium,No,0.5,0.66,Medium,No,0.166667,Low,Low,Public,Neutral,0.5,No,'High School',Moderate,Male,0.190476,5
0.885886,0.714286,0.325,High,Medium,Yes,0.666667,0.14,Medium,Yes,0.333333,Low,High,Public,Neutral,0.666667,No,'High School',Far,Male,0.261905,2
0.886887,0.547619,0.3,Medium,Low,Yes,0.833333,0.06,Medium,Yes,0,Low,High,Private,Neutral,0.666667,Yes,'High School',Moderate,Male,0.095238,7
0.887888,0.404762,0.55,Low,Medium,No,0.833333,0.46,Low,Yes,0.252798,Low,Medium,Public,Positive,0.666667,No,College,Near,Female,0.190476,3
0.888889,0.547619,0.025,Medium,Medium,No,0.5,0.6,High,Yes,0,Low,Medium,Public,Positive,0.5,No,Postgraduate,Moderate,Male,0.142857,10
0.88989,0.619048,0.075,High,Medium,Yes,0.333333,0.96,Medium,Yes,0.166667,Low,High,Public,Positive,0.333333,No,'High School',Moderate,Female,0.214286,10
0.890891,0.571429,0.425,High,High,No,0.666667,0.7,Medium,Yes,0.333333,Medium,Medium,Public,Positive,0.166667,No,College,Near,Male,0.309524,10
0.891892,0.52381,0.95,High,Medium,Yes,0.333333,0.6,Medium,Yes,0.166667,Medium,Medium,Public,Positive,0.333333,No,'High School',Moderate,Male,0.357143,10
0.892893,0.595238,0.725,Medium,Low,Yes,1,0.22,Low,Yes,0,Medium,High,Public,Neutral,0.5,No,'High School',Moderate,Female,0.238095,2
0.893894,0.619048,0.1,High,Low,Yes,0.666667,0.16,Medium,Yes,0.333333,High,High,Public,Neutral,0.166667,No,Postgraduate,Far,Male,0.190476,3
0.894895,0.642857,0.85,Medium,High,Yes,0.5,0.6,Medium,Yes,0.5,Low,High,Public,Positive,0.666667,No,Postgraduate,Far,Male,0.404762,4
0.895896,0.547619,0.725,Medium,High,Yes,0.666667,0.22,Medium,Yes,0.166667,Low,High,Public,Positive,0.5,No,'High School',Near,Female,0.333333,10
0.896897,0.428571,0.6,High,Low,Yes,0.5,0.7,Medium,Yes,0.166667,High,Medium,Private,Neutral,0.5,No,'High School',Near,Male,0.238095,7
0.897898,0.47619,0.825,Medium,Medium,Yes,0.333333,0.12,Medium,No,0.166667,Low,Medium,Public,Positive,0.5,No,'High School',Near,Male,0.238095,10
0.898899,0.619048,0.4,Low,High,Yes,0.666667,0.34,Medium,Yes,0.166667,Medium,Medium,Public,Positive,0.666667,No,'High School',Near,Male,0.220989,1
0.8999,0.333333,0.225,Medium,Medium,Yes,0.5,0.78,Medium,Yes,0.166667,Medium,High,Public,Negative,0.333333,No,College,Moderate,Female,0.119048,6
0.900901,0.5,0.5,Medium,High,Yes,1,0.84,Medium,Yes,0,Medium,High,Public,Positive,0.333333,No,'High School',Near,Female,0.285714,6
0.901902,0.404762,0.55,Low,Medium,Yes,0.333333,0.34,Low,Yes,0.166667,High,Low,Private,Positive,0.5,No,Postgraduate,Moderate,Male,0.190476,8
0.902903,0.452381,0.55,Low,Low,Yes,0.666667,0.2,Medium,Yes,0.5,Medium,High,Public,Positive,0.666667,No,'High School',Moderate,Male,0.190476,2
0.903904,0.642857,0.575,Medium,High,No,0.333333,0.96,Medium,Yes,0.166667,Low,High,Private,Neutral,0.333333,No,Postgraduate,Moderate,Male,0.333333,2
0.904905,0.47619,0.95,Low,Medium,No,0.333333,0.76,Medium,Yes,0.166667,Medium,Low,Public,Neutral,0.5,No,Postgraduate,Near,Male,0.309524,1
0.905906,0.452381,0.9,High,Medium,No,0,0.8,Medium,Yes,0.5,Low,Medium,Private,Neutral,0.333333,No,College,Near,Male,0.333333,3
0.906907,0.261905,0.875,Medium,Medium,No,0.666667,0.22,High,Yes,0.666667,High,High,Private,Neutral,0.166667,No,College,Near,Male,0.261905,7
0.907908,0.547619,0.8,Low,High,Yes,0.333333,0.42,Low,Yes,0.333333,Medium,High,Public,Positive,0.333333,No,'High School',Near,Male,0.309524,8
0.908909,0.547619,0.95,Medium,Low,No,0.833333,0.06,Medium,Yes,0.5,High,Low,Private,Negative,0.333333,No,Postgraduate,Far,Male,0.261905,7
0.90991,0.761905,0.1,High,Medium,No,0.666667,0.1,Medium,Yes,0.166667,Medium,High,Public,Neutral,0.5,No,College,Moderate,Female,0.238095,9
0.910911,0.404762,0.275,Low,Low,Yes,0.5,0.22,Low,Yes,0.333333,Low,Medium,Public,Negative,0.666667,No,College,Near,Male,0.071429,8
0.911912,0.47619,0.5,Medium,High,No,0.166667,0.3,High,Yes,0.333333,Medium,Low,Private,Neutral,0.166667,No,Postgraduate,Moderate,Male,0.238095,8
0.912913,0.47619,0.85,High,Medium,Yes,0.666667,1,Low,Yes,0,Low,Medium,Public,Neutral,0.5,No,Postgraduate,Near,Male,0.333333,2
0.913914,0.666667,0.5,Medium,Medium,Yes,0.333333,0.42,Medium,Yes,0,Medium,Medium,Public,Positive,0.5,No,College,Moderate,Female,0.285714,1
0.914915,0.428571,0.75,High,Medium,Yes,0.166667,0.7,High,Yes,0,Medium,High,Private,Positive,0.833333,No,Postgraduate,Near,Female,0.357143,6
0.915916,0.5,0.15,Medium,High,No,0.666667,0.9,Low,Yes,0.5,Medium,Medium,Private,Positive,0.5,No,'High School',Moderate,Female,0.214286,7
0.916917,0.547619,0.25,Medium,High,No,0.166667,0.24,Medium,Yes,0.333333,Low,Medium,Private,Negative,0.666667,Yes,College,Near,Male,0.166667,6
0.917918,0.47619,0.725,Medium,Medium,No,0,0.14,Medium,Yes,0.166667,High,Medium,Private,Positive,0.333333,No,'High School',Near,Female,0.238095,7
0.918919,0.380952,0.175,Low,High,Yes,0.833333,0.24,High,Yes,0.5,Medium,Medium,Public,Positive,0.5,No,'High School',Near,Male,0.166667,8
0.91992,0.47619,0.35,High,Medium,No,0.333333,0.88,Medium,Yes,0.166667,Low,High,Public,Positive,0.166667,No,'High School',Near,Male,0.928571,2
0.920921,0.595238,0.275,High,Low,Yes,0,0.66,Low,Yes,0.166667,Medium,Medium,Public,Negative,0.5,No,College,Moderate,Male,0.190476,1
0.921922,0.309524,0.35,High,High,Yes,0.333333,0.46,High,Yes,0.333333,Medium,Medium,Private,Positive,0.5,No,'High School',Near,Female,0.214286,10
0.922923,0.47619,0.7,High,Medium,No,0.333333,0.82,Medium,Yes,0.333333,High,Medium,Public,Neutral,0.166667,No,'High School',Moderate,Female,0.285714,8
0.923924,0.357143,0.375,High,Medium,Yes,0.833333,0.24,Medium,Yes,0.5,Low,Medium,Public,Positive,0.666667,No,'High School',Moderate,Female,0.190476,8
0.924925,0.619048,0.55,Medium,High,Yes,0.166667,0.24,Low,Yes,0.166667,Low,High,Private,Neutral,0.666667,No,'High School',Moderate,Female,0.261905,8
0.925926,0.238095,0.1,High,Medium,Yes,0.166667,0.56,Low,Yes,0.333333,Medium,High,Private,Neutral,0.666667,No,College,Moderate,Male,0.095238,10
0.926927,0.380952,0.495779,Medium,Low,Yes,0.666667,0.8,High,Yes,0.166667,High,Low,Public,Negative,0.5,No,'High School',Near,Male,0.238095,7
0.927928,0.5,0.375,Medium,High,Yes,0.333333,0.26,Low,Yes,0.166667,Low,Medium,Public,Positive,0.333333,No,College,Near,Male,0.214286,2
0.928929,0.666667,0.65,Medium,Medium,Yes,0.5,0.22,Medium,Yes,0,Medium,Medium,Public,Negative,0.666667,No,'High School',Far,Female,0.238095,4
0.92993,0.452381,0.725,High,Medium,Yes,0.333333,0.48,Medium,Yes,0.166667,Low,High,Private,Neutral,0.333333,No,'High School',Moderate,Male,0.261905,9
0.930931,0.380952,0.2,Medium,Medium,Yes,1,0.14,Medium,Yes,0.166667,High,Medium,Private,Positive,0.166667,Yes,'High School',Moderate,Female,0.095238,8
0.931932,0.714286,0.875,High,Medium,Yes,0.166667,0.74,Medium,Yes,0.333333,Low,Medium,Public,Neutral,0.5,No,Postgraduate,Moderate,Male,0.404762,4
0.932933,0.238095,0.625,Medium,Medium,No,0.5,0.58,Low,Yes,0.333333,High,Low,Public,Positive,0.5,No,'High School',Near,Male,0.166667,8
0.933934,0.142857,0.425,High,Medium,No,0.833333,0.52,Medium,Yes,0.333333,Medium,High,Public,Negative,0.5,No,College,Moderate,Male,0.119048,10
0.934935,0.52381,0.175,High,Medium,No,0.333333,0.88,Low,Yes,0.166667,Medium,Medium,Public,Positive,0.333333,No,College,Far,Male,0.190476,6
0.935936,0.380952,0.95,Low,High,No,0.333333,0.74,High,No,0.5,Medium,Medium,Private,Positive,0.833333,No,College,Near,Female,0.309524,9
0.936937,0.309524,0.75,High,Medium,Yes,0.666667,0.14,Medium,Yes,0,Medium,Medium,Public,Positive,0.5,Yes,College,Moderate,Male,0.190476,1
0.937938,0.547619,0.2,Medium,Medium,No,0.490582,0.42,Medium,Yes,0.333333,Medium,Medium,Public,Neutral,0.666667,No,College,Near,Male,0.190476,6
0.938939,0.47619,0.35,Medium,High,No,0.333333,0.32,Low,Yes,0.166667,Medium,High,Private,Negative,0.666667,No,'High School',Near,Male,0.190476,4
0.93994,0.380952,0.8,High,High,Yes,0.490582,0.8,Medium,Yes,0.166667,High,Low,Public,Positive,0.5,No,'High School',Moderate,Male,0.309524,3
0.940941,0.261905,0.7,Medium,Medium,Yes,0.5,0.72,High,Yes,0.5,Medium,High,Public,Positive,0.5,Yes,'High School',Moderate,Male,0.238095,5
0.941942,0.571429,0.775,Medium,Medium,No,0.666667,0.48,High,Yes,0.166667,Medium,High,Private,Positive,0.5,No,College,Moderate,Male,0.309524,10
0.942943,0.547619,0.45,Medium,Medium,Yes,0.833333,0.82,Low,Yes,0,High,High,Public,Negative,0.5,No,Postgraduate,Far,Female,0.238095,8
0.943944,0.428571,0.725,Low,Medium,No,0.666667,0.42,Medium,Yes,0.333333,Low,High,Public,Positive,0.666667,No,'High School',Near,Male,0.238095,10
0.944945,0.714286,0.375,Medium,Medium,No,0.5,0.8,Low,Yes,0.333333,Medium,High,Public,Neutral,0.333333,Yes,'High School',Moderate,Male,0.238095,6
0.945946,0.309524,0.2,Medium,Medium,Yes,0.333333,0.04,Medium,Yes,0.333333,Medium,Medium,Public,Positive,0.333333,No,College,Near,Male,0.095238,1
0.946947,0.238095,0.625,High,Low,Yes,1,0.14,High,Yes,0,Medium,High,Public,Neutral,0.833333,No,'High School',Near,Male,0.166667,6
0.947948,0.357143,0.975,Low,High,No,0.333333,0.76,High,Yes,0.333333,Low,Low,Public,Neutral,0.5,No,Postgraduate,Near,Male,0.309524,7
0.948949,0.452381,0.3,Medium,High,Yes,0.5,0.12,Low,Yes,0,Low,Medium,Public,Negative,1,Yes,College,Moderate,Male,0.119048,6
0.94995,0.47619,0.45,High,Medium,No,0.666667,0.68,Low,Yes,0.166667,High,Low,Public,Positive,0.666667,No,'High School',Near,Male,0.238095,3
0.950951,0.428571,0.675,High,Low,Yes,0.666667,0.72,Low,Yes,0.166667,Medium,High,Public,Positive,0.666667,No,'High School',Moderate,Female,0.261905,9
0.951952,0.5,0.55,High,High,No,1,0.66,Medium,Yes,0.166667,Low,High,Private,Neutral,0.333333,Yes,College,Moderate,Male,0.261905,10
0.952953,0.261905,0.85,Medium,High,Yes,0.5,0.82,Low,Yes,0.5,Medium,Medium,Private,Positive,0.5,No,Postgraduate,Near,Female,0.309524,10
0.953954,0.666667,0.75,Medium,High,No,0.5,0.52,Medium,Yes,0,Low,Medium,Public,Neutral,0.166667,No,Postgraduate,Moderate,Female,0.309524,4
0.954955,0.452381,0.05,Medium,Medium,Yes,0.833333,0.9,Low,Yes,0,Medium,Medium,Private,Neutral,0.5,Yes,'High School',Near,Male,0.095238,5
0.955956,0.619048,1,Low,Low,Yes,0.5,0.56,Low,Yes,0.333333,Medium,Medium,Public,Positive,0.333333,No,'High School',Near,Male,0.285714,5
0.956957,0.5,0.75,High,High,No,0.666667,0.5,High,Yes,0.166667,Low,Low,Private,Neutral,0.5,No,College,Moderate,Male,0.285714,3
0.957958,0.52381,0.875,Medium,Medium,Yes,0.5,0.5,Medium,Yes,0.333333,High,Medium,Public,Positive,0.333333,No,College,Near,Male,0.357143,2
0.958959,0.52381,0.65,Medium,High,Yes,0.666667,0.92,Low,Yes,0.5,Medium,Medium,Private,Positive,0.333333,No,'High School',Moderate,Female,0.309524,8
0.95996,0.52381,0.85,Medium,Low,Yes,0.666667,0.24,Medium,Yes,0.333333,Low,Medium,Public,Positive,0,No,Postgraduate,Moderate,Female,0.261905,7
0.960961,0.547619,0.1,Medium,High,Yes,0.333333,0.7,High,Yes,0,High,Low,Private,Neutral,0.5,Yes,Postgraduate,Near,Male,0.190476,5
0.961962,0.642857,0.35,Medium,Low,Yes,0,0.24,Medium,Yes,0.166667,Medium,Medium,Private,Neutral,0.5,No,'High School',Moderate,Male,0.166667,1
0.962963,0.47619,0.875,High,Medium,No,0,0.1,Medium,Yes,0.333333,Medium,High,Private,Neutral,0.166667,No,College,Near,Male,0.309524,10
0.963964,0.547619,0.2,Medium,Medium,Yes,0,0.96,High,Yes,0.333333,Medium,High,Public,Negative,0.333333,No,'High School',Near,Male,0.238095,1
0.964965,0.428571,0.075,Medium,High,Yes,0.5,0.12,Medium,Yes,0.333333,Low,Medium,Private,Positive,0.5,No,'High School',Near,Female,0.142857,8
0.965966,0.666667,0.8,Low,Low,Yes,0,0.68,Medium,Yes,0.333333,Low,Medium,Public,Negative,0.5,No,Postgraduate,Near,Male,0.309524,4
0.966967,0.357143,0.825,Low,Medium,No,0.5,0.42,Medium,Yes,0,Medium,High,Public,Positive,0.333333,No,'High School',Near,Male,0.214286,4
0.967968,0.714286,0.175,Medium,Low,No,0.5,0.84,High,Yes,0.333333,Medium,Medium,Public,Negative,0.5,No,'High School',Far,Female,0.190476,9
0.968969,0.452381,0.85,Low,High,Yes,0.666667,0.78,Medium,Yes,0.166667,Low,Medium,Public,Positive,0.666667,No,'High School',Near,Male,0.309524,2
0.96997,0.238095,0.675,Low,Medium,No,0.666667,0.14,High,Yes,0,Low,Medium,Public,Negative,0.333333,No,'High School',Moderate,Male,0.095238,5
0.970971,0.47619,0.525,High,Medium,No,0.666667,0.46,Medium,Yes,0.5,Low,Medium,Public,Positive,0.333333,Yes,'High School',Near,Male,0.214286,6
0.971972,0.357143,0.495779,Medium,Low,Yes,0.666667,0.02,Medium,Yes,0.5,Low,Medium,Public,Neutral,0.333333,No,College,Near,Male,0.214286,6
0.972973,0.571429,0.425,Low,Medium,Yes,0.5,0.42,Medium,Yes,0,Medium,Medium,Public,Negative,0.5,No,'High School',Near,Female,0.190476,10
0.973974,0.357143,0.2,Low,Medium,Yes,0.5,0.7,High,Yes,0.166667,Low,High,Private,Positive,0.5,No,Postgraduate,Moderate,Female,0.142857,3
0.974975,0.380952,0.275,Low,Medium,Yes,0.333333,0.24,Medium,Yes,0.333333,Low,Medium,Public,Neutral,0.5,Yes,College,Near,Male,0.095238,10
0.975976,0.190476,0.5,Medium,High,No,0.5,0.82,Low,Yes,0.166667,Medium,Medium,Public,Neutral,0.5,No,College,Near,Female,0.166667,6
0.976977,0.380952,0.525,Medium,Low,Yes,0.166667,0.06,Low,Yes,0,Medium,Medium,Public,Neutral,0.166667,No,College,Near,Male,0.119048,10
0.977978,0.095238,0.8,Medium,Medium,Yes,0.833333,0.04,Medium,Yes,0.333333,High,Medium,Private,Neutral,0.666667,Yes,College,Moderate,Female,0.142857,10
0.978979,0.214286,0.8,Low,High,Yes,0.333333,0.02,Low,Yes,0.166667,Medium,Medium,Private,Neutral,0.5,No,'High School',Near,Female,0.166667,5
0.97998,0.571429,0.575,Medium,High,No,0.5,0.28,Medium,Yes,0,Low,Medium,Public,Neutral,0.333333,No,College,Moderate,Male,0.238095,8
0.980981,0.571429,0.775,Medium,High,Yes,0.5,0.46,Medium,Yes,0.333333,Low,Medium,Public,Positive,0.5,No,'High School',Near,Female,0.333333,4
0.981982,0.52381,0.2,Medium,Medium,Yes,0.833333,0.1,Medium,Yes,0,Low,Medium,Public,Positive,0.5,No,College,Moderate,Male,0.142857,10
0.982983,0.309524,0.05,High,Medium,No,0,1,Low,Yes,0.166667,Low,Medium,Public,Neutral,0.5,No,'High School',Near,Male,0.095238,10
0.983984,0.452381,0.875,Medium,Low,Yes,0.5,1,Low,No,0.5,Low,Medium,Private,Neutral,0.333333,No,'High School',Near,Female,0.261905,3
0.984985,0.452381,0.075,Low,Low,Yes,0.490582,0.52,Medium,Yes,0.5,Medium,Medium,Public,Neutral,0.666667,No,Postgraduate,Near,Female,0.142857,6
0.985986,0.285714,0.25,High,Medium,No,1,0.56,Medium,Yes,0.166667,Low,Medium,Public,Negative,0.333333,No,'High School',Far,Female,0.071429,10
0.986987,0.666667,0.7,Medium,High,No,0.5,0.92,Low,Yes,0.333333,Low,Low,Public,Positive,0.333333,No,'High School',Near,Female,0.333333,9
0.987988,0.571429,0.4,Medium,Low,Yes,0.333333,0.76,Low,Yes,0.166667,Medium,Medium,Private,Negative,0.5,No,College,Far,Male,0.190476,8
0.988989,0.428571,0.875,High,Low,No,1,0.16,Low,Yes,0.333333,High,Medium,Public,Positive,0.5,No,'High School',Near,Male,0.261905,10
0.98999,0.452381,0.3,Medium,Medium,No,0.666667,0.8,High,No,0.333333,Low,Low,Private,Neutral,0.333333,No,College,Near,Female,0.166667,8
0.990991,0.47619,0,Medium,Medium,Yes,0.833333,0.24,Medium,Yes,0.333333,Low,Medium,Public,Positive,0.5,No,'High School',Near,Male,0.142857,3
0.991992,0.166667,0.3,Low,Medium,Yes,0.166667,0.44,Medium,Yes,0.5,High,Low,Private,Positive,0.666667,No,'High School',Near,Female,0.095238,1
0.992993,0.428571,0.575,Medium,Medium,No,0.666667,0.54,High,Yes,0.166667,Low,Medium,Public,Positive,0.666667,No,'High School',Far,Male,0.190476,3
0.993994,0.357143,0.375,Low,Low,Yes,0.166667,0.72,Medium,Yes,0,Low,Medium,Public,Positive,0.166667,No,College,Moderate,Female,0.095238,3
0.994995,0.309524,0.525,Medium,Medium,Yes,0.166667,0.16,High,Yes,0.5,Low,High,Public,Negative,0.666667,No,Postgraduate,Moderate,Male,0.190476,6
0.995996,0.404762,0.875,Medium,High,No,0.666667,0.08,Medium,Yes,0.333333,High,Medium,Public,Neutral,0.5,No,College,Moderate,Female,0.285714,3
0.996997,0.714286,0.9,Medium,Medium,Yes,0.666667,0.86,Low,Yes,0.5,Low,Medium,Public,Positive,0.5,No,'High School',Near,Male,0.404762,2
0.997998,0.547619,0.275,Low,High,Yes,0.333333,0.82,Medium,Yes,0.252798,High,Medium,Public,Neutral,0.333333,No,'High School',Far,Female,0.214286,9
0.998999,0.380952,0.45,Low,Medium,Yes,0.833333,0.52,Low,Yes,0.666667,Medium,Medium,Public,Positive,0.333333,No,College,Near,Male,0.190476,6
1,0.52381,0.55,Medium,High,No,0.333333,0.66,Medium,Yes,0.333333,Medium,Medium,Private,Positive,0.5,No,Postgraduate,Moderate,Male,0.309524,5
