@relation 'Stu Performance-weka.filters.unsupervised.attribute.ReplaceMissingValues'

@attribute Student_ID numeric
@attribute Hours_Studied numeric
@attribute Attendance numeric
@attribute Parental_Involvement {Low,Medium,High}
@attribute Access_to_Resources {High,Medium,Low}
@attribute Extracurricular_Activities {No,Yes}
@attribute Sleep_Hours numeric
@attribute Previous_Scores numeric
@attribute Motivation_Level {Low,Medium,High}
@attribute Internet_Access {Yes,No}
@attribute Tutoring_Sessions numeric
@attribute Family_Income {Low,Medium,High}
@attribute Teacher_Quality {Medium,High,Low}
@attribute School_Type {Public,Private}
@attribute Peer_Influence {Positive,Negative,Neutral}
@attribute Physical_Activity numeric
@attribute Learning_Disabilities {No,Yes}
@attribute Parental_Education_Level {'High School',College,Postgraduate}
@attribute Distance_from_Home {Near,Moderate,Far}
@attribute Gender {Male,Female}
@attribute Exam_Score numeric
@attribute Academic_Performance numeric

@data
1,23,84,Low,High,No,7,73,Low,Yes,0,Low,Medium,Public,Positive,3,No,'High School',Near,Male,67,8
2,19,64,Low,Medium,No,8,59,Low,Yes,2,Medium,Medium,Public,Negative,4,No,College,Moderate,Female,61,8
3,24,98,Medium,Medium,Yes,7,91,Medium,Yes,2,Medium,Medium,Public,Neutral,4,No,Postgraduate,Near,Male,74,9
4,29,89,Low,Medium,Yes,8,98,Medium,Yes,1,Medium,Medium,Public,Negative,4,No,'High School',Moderate,Male,71,6
5,19,92,Medium,Medium,Yes,6,65,Medium,Yes,3,Medium,High,Public,Neutral,4,No,College,Near,Female,70,7
6,19,88,Medium,Medium,Yes,8,89,Medium,Yes,3,Medium,Medium,Public,Positive,3,No,Postgraduate,Near,Male,71,7
7,29,84,Medium,Low,Yes,7,68,Low,Yes,1,Low,Medium,Private,Neutral,2,No,'High School',Moderate,Male,67,5
8,25,78,Low,High,Yes,6,50,Medium,Yes,1,High,High,Public,Negative,2,No,'High School',Far,Male,66,7
9,17,94,Medium,High,No,6,80,High,Yes,0,Medium,Low,Private,Neutral,1,No,College,Near,Male,69,9
10,23,98,Medium,Medium,Yes,8,71,Medium,Yes,0,High,High,Public,Positive,5,No,'High School',Moderate,Male,72,4
11,17,80,Low,High,No,8,88,Medium,No,4,Medium,High,Private,Neutral,4,No,College,Moderate,Male,68,2
12,17,97,Medium,High,Yes,6,87,Low,Yes,2,Low,High,Private,Neutral,2,No,'High School',Near,Male,71,8
13,20.147624,83,Medium,Medium,Yes,8,75.169371,Low,Yes,2,Medium,Medium,Public,Positive,4,No,'High School',Near,Male,70,7
14,9,82,Medium,Medium,Yes,8,72,Medium,Yes,2,Medium,Medium,Private,Positive,3,No,Postgraduate,Near,Male,66,6
15,10,78,Medium,Medium,Yes,8,74,Medium,Yes,1,Low,Medium,Private,Neutral,4,No,'High School',Near,Male,65,7
16,17,68,Medium,Medium,No,8,70,Medium,Yes,2,Medium,Medium,Private,Positive,4,No,'High School',Near,Female,64,3
17,14,60,Medium,Low,Yes,10,65,Low,Yes,0,High,Medium,Private,Positive,3,No,College,Near,Male,60,6
18,22,70,Low,Medium,Yes,6,82,Medium,Yes,1,Low,High,Public,Neutral,3,No,'High School',Near,Female,65,10
19,15,80,Medium,Medium,Yes,9,91,Low,Yes,3,Low,Medium,Public,Positive,2,No,College,Moderate,Female,67,7
20,12,75,Medium,High,Yes,7,58,Medium,Yes,3,Medium,Medium,Private,Positive,4,No,College,Near,Male,66,7
21,29,78,Medium,Medium,No,5,99,High,Yes,0,High,Medium,Public,Negative,3.034413,No,'High School',Moderate,Female,69,5
22,19,99,Medium,High,No,6,84,Medium,Yes,1,Medium,High,Public,Neutral,3,No,'High School',Near,Male,72,3
23,20,74,Medium,High,No,8,89,Low,Yes,1,Medium,Medium,Public,Negative,2,No,College,Moderate,Female,66,2
24,11,78,High,Medium,Yes,8,100,High,Yes,1,Low,Medium,Public,Neutral,3,No,'High School',Moderate,Male,66,7
25,17,65,Low,High,Yes,5,75,Medium,Yes,2,Low,Medium,Public,Positive,3,No,'High School',Near,Female,63,?
26,21,62,High,Low,Yes,6,54,High,Yes,0,High,High,Public,Positive,3,No,Postgraduate,Far,Male,64,2
27,13,91,Low,Medium,No,6,90,Medium,Yes,1,High,Medium,Public,Negative,2,Yes,'High School',Moderate,Female,65,8
28,22,83,High,High,Yes,6,94,Medium,Yes,0,High,Medium,Public,Neutral,2,No,College,Moderate,Male,71,2
29,16,90,Medium,Medium,No,4,58,Medium,Yes,1,Low,Medium,Public,Neutral,3,No,'High School',Moderate,Female,66,6
30,18,66,High,High,No,4,51,Low,Yes,2,Low,Medium,Private,Neutral,2,No,College,Near,Male,64,4
31,16,83,Low,Medium,No,6,57,Medium,Yes,0,High,Low,Public,Positive,4,Yes,'High School',Near,Female,63,9
32,31,70,Medium,High,Yes,7,66,Medium,Yes,1,High,Medium,Public,Negative,3,No,College,Near,Male,69,5
33,20,69,Medium,Medium,Yes,8,96,Medium,Yes,2,Medium,High,Public,Positive,3,No,'High School',Near,Male,67,4
34,14,60,High,Medium,No,5,50,Medium,Yes,2,Medium,Medium,Public,Neutral,3,No,College,Near,Female,61,8
35,25,65,High,Medium,No,5,90,Medium,Yes,2,Medium,Medium,Public,Positive,3,No,College,Moderate,Female,68,3
36,13,72,Low,Medium,No,6,93,Low,Yes,1,Low,Medium,Public,Negative,3,No,'High School',Near,Male,61,9
37,21,65,Medium,Low,Yes,7,91,Low,Yes,2,Medium,High,Public,Positive,3,No,'High School',Far,Female,64,8
38,8,99,Medium,Medium,No,9,54,Low,Yes,2,Low,Medium,Public,Neutral,5,No,Postgraduate,Near,Female,67,8
39,12,72,Low,Medium,Yes,8,84,Medium,Yes,1,Low,Medium,Public,Positive,5,No,'High School',Near,Female,63,10
40,21,65,Low,Medium,Yes,6,98,Low,Yes,1,Medium,High,Public,Negative,4,No,'High School',Near,Male,64,5
41,24,68,High,Medium,No,8,56,Low,Yes,3,High,High,Public,Neutral,1,No,College,Near,Male,67,1
42,21,84,Medium,Medium,Yes,6,75.169371,Low,Yes,1,Medium,High,Public,Neutral,2,Yes,College,Far,Female,65,10
43,19,63,Low,High,No,7,94,Medium,Yes,1,Medium,Medium,Private,Positive,3,No,'High School',Moderate,Male,64,9
44,18,94,Medium,Medium,Yes,7,82,Medium,Yes,3,Medium,Medium,Private,Negative,2,Yes,College,Near,Male,70,2
45,11,98,Medium,Medium,Yes,9,82,Low,Yes,1,Medium,Medium,Private,Positive,3,No,Postgraduate,Far,Male,68,1
46,16,70,Medium,Medium,Yes,8,98,Medium,Yes,2,Medium,Medium,Public,Positive,3,No,'High School',Moderate,Male,65,6
47,17,78,Medium,Medium,Yes,6,88,Medium,Yes,1,Medium,High,Private,Positive,3,No,College,Near,Female,68,1
48,26,61,Medium,Low,Yes,6,70,Medium,Yes,2,Low,Medium,Public,Positive,3,No,'High School',Moderate,Female,64,10
49,22,86,Low,Medium,Yes,7,72,Low,Yes,3,Low,High,Public,Positive,2,No,'High School',Moderate,Male,68,10
50,9,77,Medium,Medium,No,5,57,Medium,Yes,2,Medium,High,Public,Neutral,3,No,'High School',Near,Male,63,10
51,22,71,Low,Medium,Yes,7,65,Low,Yes,1,Medium,Low,Public,Positive,4,No,College,Moderate,Male,64,7
52,18,68,High,Medium,No,7,72,Medium,Yes,0,Medium,Medium,Public,Neutral,3,No,College,Near,Male,64,7
53,16,79.831143,Low,Medium,Yes,8,63,Medium,Yes,2,Medium,Medium,Public,Positive,4,No,'High School',Near,Male,67,1
54,24,77,High,Low,No,8,96,Medium,Yes,0,Medium,Medium,Public,Neutral,3,No,'High School',Near,Female,67,10
55,26,67,Medium,High,Yes,7,51,Low,Yes,2,High,High,Private,Neutral,4,Yes,Postgraduate,Far,Female,66,5
56,26,88,Medium,High,Yes,5,75.169371,Medium,Yes,1,Low,High,Private,Positive,4,No,College,Moderate,Male,72,3
57,15,83,Medium,High,No,5,89,Low,No,1,Medium,High,Public,Neutral,2,Yes,'High School',Near,Female,67.281534,2
58,18,94,Medium,Medium,Yes,6,87,High,Yes,1,Medium,Medium,Public,Positive,4,No,'High School',Near,Male,71,5
59,22,65,High,Low,No,8,82,Medium,Yes,2,Medium,High,Public,Positive,1,No,Postgraduate,Near,Female,66,5
60,26,91,Medium,Low,Yes,8,71,Medium,Yes,0,Low,Medium,Private,Neutral,3,No,'High School',Moderate,Male,68,2
61,17,87,Medium,Medium,Yes,7,96,Medium,Yes,1,High,Medium,Public,Negative,5,No,Postgraduate,Near,Female,70,6
62,19,65,Medium,Medium,Yes,10,66,Low,Yes,0,Low,Medium,Public,Positive,3,No,'High School',Moderate,Male,62,7
63,13,88,Low,High,Yes,9,88,High,Yes,2,Low,High,Private,Negative,4,No,Postgraduate,Far,Male,68,1
64,13,78,Medium,High,Yes,9,96,High,Yes,2,Low,Medium,Public,Neutral,3,No,College,Moderate,Male,67,3
65,25,98,Low,High,Yes,8,56,Medium,No,0,Medium,High,Private,Neutral,3,No,Postgraduate,Near,Male,71,4
66,28,66,Medium,High,Yes,8,97,Medium,Yes,0,Medium,Medium,Public,Neutral,2,No,'High School',Near,Male,68,2
67,20,86,Medium,Medium,Yes,8,89,Medium,Yes,1,Low,Medium,Public,Negative,3,No,Postgraduate,Near,Male,69,10
68,26,75,Low,High,Yes,4,81,High,Yes,3,Medium,High,Private,Positive,2,No,'High School',Moderate,Male,70,5
69,22,98,Medium,High,No,5,69,Low,No,1,Low,High,Public,Negative,4,No,'High School',Moderate,Female,69,4
70,16,73,Medium,Medium,No,7,95,Medium,Yes,1,Low,Medium,Public,Positive,4,No,'High School',Near,Male,65,2
71,22,98,Medium,Low,Yes,7,52,Medium,No,3,Medium,Medium,Public,Positive,3,No,College,Near,Female,70,1
72,29,96,Medium,Medium,Yes,7,72,Medium,Yes,1,Low,Medium,Public,Positive,3,No,'High School',Moderate,Male,71,8
73,20,71,Medium,Medium,Yes,7,88,Medium,Yes,1,Low,Low,Public,Neutral,4,No,College,Near,Female,65,2
74,29,92,Low,Medium,No,4,91,Medium,Yes,2,Medium,Medium,Public,Negative,1,No,Postgraduate,Near,Female,72,4
75,4,100,High,High,Yes,8,60,High,Yes,0,Medium,High,Private,Positive,4,No,College,Moderate,Male,69,10
76,25,70,Medium,Medium,No,7,52,Medium,Yes,1,Medium,Medium,Public,Positive,3,No,Postgraduate,Near,Female,66,5
77,21,77,Low,Medium,Yes,7,90,Medium,Yes,4,Medium,Medium,Private,Neutral,3,No,Postgraduate,Moderate,Male,68,2
78,18,81,High,Low,Yes,8,71,Medium,Yes,0,Medium,Medium,Public,Neutral,3,No,'High School',Moderate,Female,65,10
79,21,72,Medium,Medium,Yes,5,57,Medium,Yes,1,High,Medium,Public,Neutral,5,Yes,College,Moderate,Male,64,9
80,8,61,Medium,Medium,Yes,7,54,Medium,Yes,1,High,Medium,Public,Positive,3,No,College,Near,Male,60,2
81,19,69,Medium,High,Yes,7,82,High,Yes,1,Low,Medium,Public,Negative,2,No,'High School',Near,Male,65,6
82,22,71,High,Medium,No,6,79,High,Yes,1,Low,Low,Public,Positive,3,No,'High School',Near,Male,66,7
83,29,78,High,High,Yes,4,93,Low,Yes,5,Medium,High,Public,Neutral,3,No,College,Near,Male,74,6
84,17,67,Medium,Medium,Yes,5,52,High,Yes,2,Medium,Medium,Private,Negative,3,No,'High School',Far,Female,62,4
85,15,95,Medium,Medium,No,7,93,Medium,Yes,2,Low,Medium,Public,Positive,4,No,College,Moderate,Male,70,1
86,17,88,Medium,High,Yes,7,94,Low,Yes,0,Medium,Medium,Public,Neutral,3,No,'High School',Near,Male,69,2
87,25,63,Medium,High,Yes,7,72,Medium,Yes,3,Medium,High,Private,Negative,4,No,College,Far,Male,67,10
88,22,86,Low,Low,No,6,54,Medium,Yes,1.516785,Medium,Medium,Public,Neutral,0,No,'High School',Moderate,Male,64,10
89,17,86,Medium,High,No,5,97,High,Yes,3,High,Medium,Public,Neutral,3,No,College,Near,Male,71,6
90,23,98,Medium,Low,Yes,7,54,Low,Yes,0,Medium,Medium,Public,Negative,3,No,College,Near,Female,68,8
91,21,60,High,Medium,No,7,80,Medium,Yes,0,Medium,High,Public,Positive,4,Yes,College,Near,Male,64,3
92,26,70,Medium,Low,Yes,8,75,Medium,Yes,1,Medium,Low,Private,Neutral,4,Yes,'High School',Far,Female,63,7
93,16,97,Medium,Medium,Yes,6,92,Low,Yes,0,High,Medium,Private,Positive,4,No,College,Near,Male,71,9
94,18,97,High,Medium,Yes,4,75,Low,Yes,0,Low,Medium,Public,Positive,3,No,'High School',Moderate,Male,69,4
95,18,89,High,Medium,Yes,4,73,Medium,Yes,3,High,Medium,Private,Positive,2,No,College,Near,Female,100,7
96,11,91,Medium,Medium,No,6,94,Medium,Yes,3,Medium,Medium,Public,Neutral,3,No,College,Moderate,Male,68,7
97,22,64,Low,Medium,No,7,98,Low,No,1,Medium,Medium,Public,Negative,3,No,'High School',Near,Male,62,10
98,22,81,Medium,Medium,Yes,7,77,Low,Yes,2,Medium,Medium,Public,Positive,3,No,Postgraduate,Far,Female,68,9
99,20,69,High,High,Yes,6,73,Medium,Yes,2,Low,Medium,Private,Positive,3,No,'High School',Far,Male,66,3
100,19,67,Low,Medium,No,5,92,High,Yes,0,Medium,Medium,Public,Positive,3,No,College,Near,Male,64,1
101,12,92,Medium,Medium,No,4,92,Medium,Yes,2,Medium,High,Public,Neutral,3,Yes,'High School',Moderate,Male,67,8
102,17,65,Medium,High,Yes,8,66,Medium,Yes,1,High,High,Public,Neutral,4,Yes,Postgraduate,Moderate,Female,65,4
103,18,79,Medium,Medium,Yes,7,79,Medium,Yes,0,Low,High,Private,Neutral,3,No,College,Far,Male,65,2
104,15,98,High,Medium,No,6,58,High,Yes,0,Low,High,Public,Positive,3,No,College,Near,Male,69,5
105,19,67,Medium,Medium,No,5,82,High,Yes,1,Low,Low,Private,Negative,3,No,'High School',Near,Male,63,4
106,22,99,Medium,Low,Yes,6,92,Low,Yes,3,Medium,Medium,Public,Negative,4,No,Postgraduate,Moderate,Male,72,1
107,31,100,Medium,Medium,No,7,59,Medium,Yes,2,High,High,Public,Positive,5,No,Postgraduate,Moderate,Male,76,7
108,21,82,Medium,High,Yes,7,66,High,Yes,3,Low,Medium,Public,Positive,3,Yes,College,Near,Female,69,4
109,22,67,Medium,Medium,Yes,7,72,High,Yes,3,Low,High,Public,Positive,2,No,Postgraduate,Moderate,Female,67,8
110,20,73,High,Medium,Yes,9,92,Medium,Yes,2,Medium,High,Public,Positive,3,No,College,Near,Male,69,9
111,8,77,High,Medium,Yes,6,87,Medium,Yes,0,Low,Medium,Public,Neutral,2,No,'High School',Moderate,Male,63,8
112,20,72,Medium,Medium,No,9,66,Medium,Yes,3,Low,High,Private,Positive,3,No,Postgraduate,Near,Male,67,1
113,20,71,Low,High,Yes,7,62,High,Yes,2,Medium,Medium,Public,Negative,5,No,College,Near,Male,66,8
114,35,99,High,High,Yes,7,85,Low,Yes,2,Medium,High,Private,Neutral,2,No,Postgraduate,Near,Female,79,5
115,19,66,Medium,Medium,No,8,74,Medium,Yes,1,High,Medium,Public,Neutral,3,No,'High School',Near,Female,64,1
116,22,89,High,High,Yes,6,80,Medium,Yes,1,High,High,Public,Positive,3,No,'High School',Near,Female,73,9
117,20,60,Low,High,No,7,82,High,Yes,2,Low,High,Public,Positive,4,Yes,'High School',Near,Male,63,9
118,13,84,Medium,Medium,No,5,78,Medium,Yes,1,Low,High,Public,Positive,2,No,'High School',Near,Male,65,7
119,27,97,Low,High,Yes,8,81,Medium,Yes,0,High,Medium,Public,Positive,5,No,'High School',Near,Male,73,7
120,25,72,High,High,Yes,8,94,Low,Yes,2,Low,Medium,Private,Positive,4,No,College,Moderate,Female,70,1
121,25,67,High,Medium,No,9,93,High,Yes,2,Medium,High,Public,Positive,3,Yes,'High School',Near,Female,68,9
122,15,86,Medium,Medium,Yes,7,57,Medium,Yes,1,Medium,Medium,Public,Negative,3,No,College,Near,Male,65,1
123,28,89,Low,High,Yes,9,79,High,Yes,0,Low,Medium,Private,Positive,1,No,College,Moderate,Female,71,7
124,12,88,Low,Medium,No,6,72,Low,Yes,2,Medium,Medium,Public,Positive,2,No,College,Far,Male,64,9
125,24,73,Medium,High,Yes,8,64,Medium,Yes,4,High,Medium,Private,Neutral,3,Yes,College,Moderate,Male,68,9
126,33,70,Medium,Medium,Yes,6,82,Low,Yes,1,Low,High,Public,Neutral,4,No,College,Near,Male,69,5
127,14,98,Medium,Medium,No,7,76,Medium,Yes,0,Medium,High,Private,Positive,4,No,College,Moderate,Female,69,6
128,17,97,Medium,Medium,No,8,89,Medium,Yes,1,Low,Medium,Public,Neutral,4,No,'High School',Far,Male,69,2
129,21,78,Medium,Medium,Yes,10,55,Medium,Yes,1,High,Low,Private,Positive,2,No,College,Near,Male,67,2
130,17,94,Low,Medium,Yes,8,65,Low,Yes,4,Medium,Medium,Public,Neutral,6,No,'High School',Far,Female,68,10
131,11,78,Medium,High,Yes,8,51,Medium,Yes,2,Low,Medium,Public,Neutral,3,No,Postgraduate,Near,Male,64,9
132,20,77,Medium,Medium,No,6,87,Low,Yes,0,Low,High,Public,Positive,4,No,'High School',Near,Female,66,1
133,14,66,High,Low,No,7,96,Medium,Yes,3,Medium,High,Public,Negative,3,No,'High School',Near,Male,63,10
134,23,77,Medium,Medium,Yes,7,79,Medium,Yes,0,Low,High,Public,Neutral,2,No,'High School',Moderate,Male,66,5
135,14,81,Medium,Medium,No,9,81,Medium,Yes,1,Low,High,Private,Negative,3,No,Postgraduate,Near,Female,66,7
136,29,61,Medium,High,Yes,7,52,Low,Yes,3,Low,Medium,Private,Positive,3,No,College,Near,Female,67,10
137,15,78,High,High,No,9,75,Low,Yes,1,Low,Medium,Public,Negative,1,No,'High School',Near,Male,65,6
138,18,91,Low,Medium,Yes,5,76,Medium,Yes,1,Medium,Medium,Public,Neutral,3,No,'High School',Near,Female,68,6
139,25,87,Medium,Low,No,9,52,High,Yes,1,Low,High,Private,Positive,2,No,'High School',Near,Male,68,6
140,13,85,High,Medium,No,6,89,Medium,Yes,0,High,Medium,Private,Neutral,1,Yes,'High School',Near,Male,65,8
141,21,96,Medium,Medium,No,8,64,High,Yes,2,Medium,High,Public,Neutral,0,No,College,Near,Male,71,7
142,28,61,Medium,High,No,6,86,High,Yes,1,Low,Medium,Private,Negative,3,Yes,Postgraduate,Far,Male,65,5
143,10,82,Medium,Low,No,8,70,Medium,Yes,3,Low,High,Public,Positive,1,Yes,Postgraduate,Near,Female,64,10
144,21,91,High,Medium,No,6,100,Medium,Yes,0,High,Medium,Private,Neutral,2,No,Postgraduate,Near,Female,72,2
145,22,82,Medium,Medium,No,9,61,Medium,Yes,2,Low,Medium,Public,Negative,2,Yes,'High School',Near,Female,65,10
146,25,73,Medium,High,No,8,53,High,No,0,Low,High,Private,Negative,5,No,Postgraduate,Near,Female,66,6
147,13,65,Low,High,No,6,99,Medium,Yes,0,Low,Medium,Private,Negative,4,No,'High School',Near,Male,61,10
148,12,79.831143,Low,High,Yes,8,62,Medium,Yes,2,Medium,High,Public,Negative,3,No,College,Near,Female,68,5
149,23,79,High,High,Yes,8,82,Low,Yes,3,Medium,Medium,Public,Negative,3,Yes,Postgraduate,Moderate,Female,69,4
150,22,95,Medium,High,Yes,6,69,Medium,Yes,1,Low,Medium,Public,Positive,3,No,College,Near,Female,72,10
151,22,83,Medium,High,Yes,5,82,Medium,Yes,2,Low,High,Public,Positive,3,No,Postgraduate,Near,Female,71,5
152,22,87,High,High,No,5,80,Low,Yes,2,Low,High,Public,Negative,3,No,'High School',Near,Female,70,9
153,16,92,Medium,High,Yes,5,85,Low,Yes,1,Low,Medium,Public,Neutral,2,No,'High School',Moderate,Male,68,2
154,21,86,Low,Medium,Yes,5,51,Medium,Yes,2,Low,High,Public,Positive,2,No,'High School',Moderate,Female,67,6
155,22,76,Medium,Medium,Yes,8,92,Medium,Yes,1,Low,High,Public,Neutral,4,No,'High School',Near,Female,68,9
156,16,81,Medium,Medium,Yes,8,74,Medium,Yes,3,Medium,Medium,Public,Positive,2,No,Postgraduate,Near,Female,68,10
157,31,92,Medium,Medium,Yes,4,76,Medium,Yes,2,Medium,High,Public,Positive,4,Yes,'High School',Far,Male,72,5
158,23,75,Low,High,No,6,71,Low,Yes,0,Medium,Medium,Public,Neutral,2,No,College,Near,Male,65,6
159,13,76,Medium,High,No,5,99,Low,Yes,2,Medium,Medium,Private,Positive,4,No,'High School',Near,Female,66,10
160,24,64,Medium,Medium,Yes,8,90,High,Yes,0,Low,High,Public,Negative,3,No,'High School',Near,Male,65,4
161,14,97,Medium,Medium,Yes,6,66,Medium,Yes,2,Medium,Medium,Public,Negative,3,Yes,College,Near,Female,67,5
162,25,64,Medium,High,No,5,89,Low,Yes,2,Medium,Medium,Public,Neutral,4,No,College,Far,Male,66,8
163,27,86,Medium,Medium,No,7,72,Low,Yes,1,Medium,High,Public,Positive,4,No,'High School',Far,Male,69,1
164,15,77,Medium,Medium,Yes,8,94,Low,Yes,0,High,High,Public,Positive,3,No,College,Moderate,Male,66,1
165,26,76,Medium,High,Yes,6,52,Medium,Yes,4,High,Low,Public,Neutral,3,No,'High School',Near,Male,69,10
166,22,87,High,Low,Yes,7,68,Medium,No,0,Low,Medium,Public,Neutral,2,No,'High School',Near,Male,67,4
167,25,63,High,Medium,Yes,6,71,Medium,Yes,1,Medium,Low,Private,Positive,3,No,'High School',Near,Male,66,10
168,31,84,Medium,Medium,Yes,9,87,Medium,Yes,2,Low,Medium,Private,Neutral,3,No,College,Far,Male,71,3
169,19,91,High,Low,No,6,59,Medium,Yes,5,Medium,High,Public,Neutral,4,No,College,Moderate,Male,70,5
170,15,93,High,Medium,No,6,64,Medium,Yes,2,Medium,High,Public,Positive,4,No,Postgraduate,Near,Male,71,10
171,15,67,Medium,Medium,Yes,7,86,High,Yes,1,High,Medium,Private,Positive,3,No,Postgraduate,Near,Male,66,8
172,15,96,Medium,Medium,No,7,54,High,No,3,Medium,High,Public,Negative,2,No,'High School',Near,Male,67,1
173,20,86,High,Low,No,8,60,Medium,Yes,1,Medium,Medium,Public,Neutral,4,Yes,College,Far,Female,66,5
174,22,95,Medium,High,No,9,88,Low,Yes,0,Low,High,Public,Positive,2,No,Postgraduate,Near,Male,72,5
175,22,79,Medium,Medium,No,9,94,Medium,Yes,1,Medium,Medium,Public,Positive,3,No,'High School',Near,Male,68,2
176,25,82,Medium,Medium,No,6,86,Medium,No,3,Low,High,Public,Positive,3,No,'High School',Near,Female,69,5
177,20,97,Medium,Medium,Yes,7,76,Low,Yes,2,Low,Low,Private,Positive,3,No,Postgraduate,Near,Male,71,8
178,29,96,Medium,Medium,Yes,9,55,Low,No,0,Medium,Medium,Public,Neutral,2,No,Postgraduate,Far,Female,70,10
179,18,78,Medium,Medium,No,9,91,High,Yes,2,High,Low,Public,Neutral,4,No,College,Far,Female,67,7
180,36,71,Medium,Medium,Yes,6.943491,56,Medium,Yes,2,High,Medium,Public,Positive,2,No,'High School',Far,Male,69,2
181,24,76,Low,High,No,8,69,Low,Yes,2,Medium,Medium,Public,Neutral,1,No,'High School',Moderate,Male,65,6
182,15,76,High,High,No,8,53,Medium,Yes,1,Low,Medium,Public,Neutral,4,No,College,Near,Male,65,10
183,14,71,Medium,Medium,Yes,8,85,Low,Yes,2,Medium,High,Public,Neutral,4,No,'High School',Near,Male,64,1
184,23,71,Low,Low,Yes,9,75,Low,Yes,1,Low,Medium,Public,Negative,2,No,College,Near,Male,63,10
185,19,94,Low,Medium,Yes,5,95,Medium,Yes,3,Low,Medium,Public,Positive,2,No,'High School',Moderate,Male,69,10
186,24,63,Medium,Low,Yes,6,57,Medium,Yes,1,Low,High,Private,Neutral,5,No,College,Near,Female,64,3
187,23,87,High,High,Yes,8,91,High,Yes,0,High,Medium,Private,Positive,3,No,'High School',Moderate,Male,72,6
188,20,67,Low,Medium,Yes,7,76,Medium,Yes,0,Medium,Medium,Public,Neutral,4,No,'High School',Near,Male,63,9
189,15,74,Low,High,Yes,4,68,Low,Yes,3,Low,Medium,Public,Positive,3,No,'High School',Near,Female,64,1
190,11,62,Medium,High,Yes,5,82,Medium,Yes,3,High,Medium,Private,Neutral,4,No,College,Moderate,Male,64,6
191,17,71,Medium,Medium,Yes,8,90,Medium,Yes,5,Medium,Medium,Public,Positive,1,No,Postgraduate,Far,Male,67,2
192,25,91,Medium,Medium,No,8,72,Low,Yes,2,Medium,High,Public,Positive,0,No,Postgraduate,Near,Male,71,9
193,21,95,Medium,Medium,No,5,62,High,Yes,1,Medium,Low,Public,Positive,4,No,'High School',Near,Male,70,2
194,13,69,Medium,Low,Yes,9,96,Low,Yes,0,High,Medium,Private,Neutral,4,No,'High School',Far,Female,61,3
195,21,79,Medium,High,Yes,7,66,Low,Yes,2,Low,Medium,Public,Negative,4,No,College,Moderate,Male,67,2
196,22,79,High,Medium,No,5,100,Medium,Yes,4,High,High,Public,Negative,3,No,College,Near,Male,72,4
197,15,95,Low,Low,Yes,6,88,Low,Yes,1,Low,Medium,Public,Negative,5,No,'High School',Near,Male,66,4
198,21,91,Medium,High,Yes,5,84,Medium,Yes,1,High,Low,Public,Neutral,2,No,'High School',Near,Male,70,10
199,20,81,Medium,Medium,Yes,6,51,High,No,3,Medium,Medium,Public,Neutral,4,Yes,'High School',Near,Male,67,1
200,13,87,High,Low,Yes,4,72,Medium,Yes,2,Medium,High,Public,Neutral,3,No,'High School',Moderate,Female,67,8
201,22,94,Low,Medium,Yes,7,75,High,Yes,2,High,Medium,Public,Neutral,2,No,College,Near,Female,71,?
202,23,60,High,Medium,Yes,8,69,Medium,Yes,1,Low,Medium,Private,Positive,4,No,College,Near,Male,66,8
203,26,76,Medium,Medium,Yes,5,57,Medium,Yes,1,Medium,Medium,Public,Positive,4,No,'High School',Near,Male,68,6
204,26,96,Medium,Medium,Yes,7,68,Medium,Yes,3,High,Medium,Private,Positive,3,No,College,Near,Female,74,2
205,12,90,Medium,Low,Yes,6,54,Medium,No,1,High,Medium,Public,Neutral,3,No,'High School',Near,Male,64,7
206,14,82,Medium,Medium,No,8,65,Medium,Yes,1,Low,Medium,Private,Positive,3,No,College,Near,Male,65,10
207,23,81,Low,Medium,Yes,4,54,Medium,Yes,1,Low,Medium,Public,Neutral,3,No,College,Near,Male,66,9
208,23,74,Medium,High,Yes,8,88,Low,Yes,0,Medium,High,Public,Negative,3,Yes,'High School',Near,Male,66,7
209,23,81,Medium,Low,No,4,84,Medium,Yes,2,Medium,Medium,Public,Positive,5,No,'High School',Near,Male,68,5
210,43,86,High,Medium,Yes,7,97,Medium,Yes,2,Medium,High,Public,Positive,1,No,'High School',Near,Female,78,4
211,23,77,Medium,High,Yes,6,69,Low,Yes,1,Medium,Medium,Private,Positive,2,No,'High School',Moderate,Female,67,8
212,27,89,Medium,High,Yes,6,89,Medium,Yes,3,Medium,Medium,Private,Positive,3,No,'High School',Near,Male,74,6
213,26,94,Medium,High,No,5,79,High,Yes,1,Low,High,Public,Positive,2,No,Postgraduate,Near,Male,74,5
214,24,66,Medium,Low,No,9,82,Low,Yes,1,Medium,Medium,Public,Neutral,2,Yes,'High School',Near,Female,62,7
215,18,78,High,Medium,Yes,5,77,Medium,No,2,Medium,Medium,Public,Neutral,4,No,'High School',Far,Male,66,3
216,25,76,Medium,Medium,Yes,5,89,High,Yes,3,Medium,High,Public,Neutral,3,No,'High School',Far,Female,69,9
217,15,87,Medium,High,Yes,10,52,Medium,Yes,2,Low,High,Private,Positive,3,No,College,Near,Male,67.281534,4
218,19,70,Medium,Low,No,7,54,High,Yes,0,Medium,Medium,Public,Positive,2,Yes,'High School',Moderate,Male,89,4
219,17,86,High,Low,No,5,55,Low,No,2,Medium,Medium,Private,Neutral,4,No,College,Near,Male,66,8
220,20,95,Low,Medium,Yes,7,64,Low,No,2,Medium,High,Public,Neutral,3,No,'High School',Near,Female,67.281534,6
221,34,77,Medium,Low,Yes,7,80,Low,Yes,0,Medium,Medium,Public,Positive,3,No,'High School',Near,Male,69,1
222,9,96,Medium,Medium,Yes,4,82,High,No,0,Low,Medium,Public,Positive,4,No,College,Near,Male,67,2
223,24,100,High,High,Yes,6,86,Low,Yes,2,Medium,Medium,Private,Positive,5,No,'High School',Near,Male,75,9
224,10,79.831143,Medium,High,No,7,64,High,Yes,0,Medium,Medium,Public,Positive,4,Yes,'High School',Moderate,Female,60,6
225,17,69,High,Medium,Yes,9,83,Medium,Yes,2,Medium,High,Private,Positive,4,Yes,College,Moderate,Female,66,7
226,27,98,Low,High,Yes,7,56,Low,Yes,1,High,Medium,Private,Positive,3,No,College,Near,Female,73,9
227,20,98,Medium,Low,No,7,50,Low,Yes,1.516785,Medium,High,Private,Neutral,2,No,'High School',Near,Female,68,3
228,14,64,Medium,Medium,Yes,6,85,Medium,Yes,0,Medium,Medium,Public,Neutral,3,No,'High School',Near,Male,62,5
229,16,61,Medium,Medium,No,9,86,Low,Yes,2,Low,High,Public,Positive,2,No,'High School',Near,Male,62,5
230,24,66,High,Low,Yes,8,81,High,Yes,1,Medium,Medium,Public,Neutral,4,No,'High School',Far,Male,65,10
231,16,100,High,Low,Yes,8,63,High,Yes,2,Low,Medium,Public,Negative,3,No,'High School',Moderate,Male,69,7
232,21,67,Medium,Medium,No,7,96,Low,Yes,3,Low,Medium,Public,Neutral,2,No,'High School',Far,Female,64,2
233,20,80,Medium,High,No,5,94,Medium,Yes,0,Low,Low,Private,Positive,4,Yes,Postgraduate,Moderate,Female,67,4
234,16,94,High,High,Yes,9,76,Medium,Yes,0,Low,High,Public,Neutral,2,No,'High School',Near,Male,70,4
235,33,61,Medium,Medium,No,7,99,High,Yes,2,Medium,High,Public,Neutral,3,No,College,Near,Female,70,8
236,24,84,High,Low,No,7,65,Low,Yes,3,Medium,High,Public,Positive,3,No,'High School',Near,Female,69,10
237,8,71,High,Low,No,8,75,Medium,Yes,0,Medium,High,Public,Positive,3,No,'High School',Near,Male,61,3
238,21,94,Medium,Medium,No,7,96,Low,Yes,0,Medium,Medium,Private,Neutral,2,Yes,Postgraduate,Moderate,Male,69,2
239,16,71,High,Medium,Yes,5,73,Medium,Yes,1,Medium,Medium,Public,Neutral,0,Yes,'High School',Near,Male,63,9
240,25,87,Medium,Low,Yes,7,74,Low,Yes,0,Medium,High,Public,Neutral,4,Yes,'High School',Near,Male,67,4
241,15,87,Low,Medium,No,4,54,Medium,Yes,1,Medium,Medium,Public,Neutral,6,No,'High School',Moderate,Male,65,9
242,19,69,Medium,Medium,Yes,7,61,High,Yes,3,High,High,Public,Neutral,4,No,'High School',Moderate,Male,66,6
243,23,61,Low,Medium,No,9,58,Medium,Yes,4,Medium,Medium,Public,Neutral,3.034413,No,'High School',Near,Male,63,1
244,25,76,Medium,High,Yes,4,78,Medium,Yes,2,Medium,Medium,Private,Negative,3,No,'High School',Moderate,Female,68,3
245,13,72,High,High,No,7,66,Medium,Yes,0,Low,High,Public,Neutral,4,No,Postgraduate,Near,Male,65,7
246,18,92,Low,Medium,Yes,8,54,Medium,Yes,1,Medium,Medium,Public,Positive,3,No,'High School',Near,Male,67,9
247,17,92,Low,Low,Yes,6.943491,75,Medium,Yes,2,Medium,High,Public,Neutral,3,No,Postgraduate,Near,Female,68,8
248,16,78,Medium,High,No,6,83,Medium,Yes,0,Low,Low,Public,Neutral,3,Yes,College,Near,Male,64,5
249,31,84,Medium,Medium,No,5,87,High,Yes,0,Medium,Medium,Private,Positive,3,No,College,Moderate,Male,71,8
250,22,84,Medium,Medium,Yes,6,75.169371,Low,Yes,0,Medium,Medium,Public,Neutral,5,No,'High School',Near,Female,69,2
251,12,93,Medium,Medium,Yes,9,75.169371,Low,Yes,1,Medium,Medium,Public,Neutral,3,No,Postgraduate,Moderate,Male,67,3
252,26,77,Low,Medium,No,4,70,Low,Yes,2,High,Medium,Public,Neutral,3,Yes,College,Moderate,Female,65,8
253,33,71,Low,Medium,No,5,84,Medium,Yes,1,Medium,Medium,Public,Positive,2,No,'High School',Near,Male,68,9
254,26,71,High,Medium,Yes,6,51,Low,No,1,High,Medium,Private,Positive,3,No,Postgraduate,Near,Male,67,10
255,11,81,Medium,Medium,Yes,6,82,High,Yes,3,Medium,High,Public,Neutral,4,No,'High School',Near,Male,67,8
256,17,78,Medium,High,Yes,7,70,Medium,No,2,Low,High,Public,Positive,3,No,'High School',Near,Male,66,4
257,28,78,High,Medium,No,9,73,High,Yes,2,Medium,Medium,Public,Neutral,4,No,College,Moderate,Female,70,6
258,16,64,High,Low,Yes,5,65,Medium,Yes,3,Medium,High,Private,Positive,4,No,Postgraduate,Moderate,Female,65,5
259,23,89,Low,Low,Yes,7,56,Low,Yes,4,Medium,Low,Private,Positive,4,No,Postgraduate,Near,Female,69,4
260,25,69,Medium,Medium,Yes,7,70,Low,No,1,High,High,Public,Positive,4,No,'High School',Far,Female,65,9
261,14,68,High,Medium,No,6,65,Medium,Yes,1,High,Medium,Public,Neutral,3,Yes,College,Near,Male,63,10
262,20,77,Medium,Medium,No,5,98,Low,Yes,2,Low,High,Private,Neutral,2,No,Postgraduate,Far,Female,67,?
263,1,69,High,Medium,Yes,6,97,Medium,Yes,1,Low,Medium,Public,Positive,3,No,'High School',Near,Female,61,1
264,14,83,Medium,Low,Yes,6,82,Medium,Yes,0,Medium,Medium,Public,Positive,2,No,'High School',Near,Female,65,7
265,18,75,Low,High,Yes,8,95,Medium,Yes,1,Low,Low,Public,Neutral,2,No,College,Near,Female,66,10
266,13,78,Medium,High,Yes,8,75.169371,High,Yes,0,High,Low,Public,Neutral,3,No,College,Near,Male,66,8
267,30,81,Medium,Medium,Yes,5,67,Medium,Yes,1,High,High,Public,Negative,1,No,'High School',Near,Male,69,3
268,11,68,Medium,Medium,No,6.943491,80,Medium,Yes,2,Medium,Medium,Public,Positive,3,No,College,Moderate,Female,63,3
269,17,66,Low,High,No,6,61,Medium,Yes,1,High,Medium,Public,Positive,6,No,Postgraduate,Near,Male,65,6
270,21,95,Low,Low,No,10,84,Low,Yes,0,High,Medium,Public,Neutral,4,Yes,'High School',Near,Male,67,2
271,29,77,High,High,Yes,7,52,Medium,Yes,2,High,Medium,Public,Negative,3,Yes,'High School',Near,Female,69,6
272,11,76,Low,Medium,Yes,5,92,Medium,Yes,4,Medium,Low,Public,Negative,2,No,Postgraduate,Near,Male,65,5
273,27,61,Medium,Medium,No,6,79,Medium,Yes,1,Low,Medium,Public,Positive,3,No,'High School',Moderate,Male,65,7
274,20,80,High,Low,Yes,6,53,Medium,Yes,0,Low,Medium,Public,Neutral,2,No,College,Moderate,Male,65,9
275,14,82,Medium,High,Yes,8,94,Low,Yes,2,Low,High,Public,Negative,5,No,College,Far,Female,67,9
276,23,82,Low,Medium,Yes,8,94,Medium,Yes,1,Medium,Medium,Public,Negative,2,Yes,'High School',Near,Male,66,1
277,21,88,Medium,High,No,7,93,Medium,Yes,4,Low,Medium,Public,Positive,3,No,'High School',Near,Female,72,7
278,16,67,Medium,High,No,7,89,High,Yes,3,Low,Medium,Public,Positive,3,No,College,Near,Male,66,3
279,20,70,Medium,Medium,Yes,7,84,Low,No,2,Medium,High,Private,Neutral,4,No,College,Far,Male,65,4
280,20.147624,92,High,Medium,Yes,7,70,Medium,Yes,1,Low,Medium,Public,Neutral,3,No,'High School',Moderate,Male,69,2
281,21,98,Medium,Low,No,4,57,Medium,Yes,2,High,Low,Public,Positive,2,No,'High School',Near,Female,68,1
282,24,65,Medium,Low,No,7,64,Low,Yes,1,High,Medium,Public,Neutral,1,No,Postgraduate,Near,Male,64,10
283,30,80,Low,High,No,6,67,Medium,Yes,3,Medium,Medium,Public,Negative,4,No,College,Moderate,Female,69,3
284,13,69,Medium,Low,Yes,5,68,Low,Yes,0,High,Medium,Public,Positive,1,Yes,'High School',Moderate,Female,59,10
285,33,62,High,Medium,Yes,10,78,Medium,Yes,0,Medium,Medium,Private,Positive,3,No,'High School',Moderate,Female,68,9
286,8,73,Medium,Medium,No,7,60,Medium,No,0,High,Medium,Private,Neutral,3,No,'High School',Near,Female,60,1
287,19,66,Medium,High,No,7,59,Medium,Yes,1,High,Medium,Public,Negative,3,No,'High School',Far,Male,62,3
288,24,88,Low,Medium,Yes,6,86,Low,Yes,0,Low,Low,Public,Negative,3,No,College,Near,Male,67,5
289,22,81,Low,High,Yes,8,50,High,Yes,4,Medium,Medium,Private,Positive,5,No,'High School',Far,Female,68,3
290,16,66,Medium,High,Yes,5,57,High,Yes,3,Medium,Medium,Public,Positive,3,No,'High School',Moderate,Female,64,4
291,19,60,Medium,High,Yes,7,72,High,Yes,3,Low,High,Public,Positive,3,No,'High School',Moderate,Female,65,4
292,17,92,Low,Low,Yes,6,57,Medium,Yes,2,Medium,Medium,Private,Positive,2,Yes,'High School',Moderate,Female,65,1
293,16,67,High,Medium,No,8,98,Medium,Yes,0,Low,Low,Public,Neutral,3,No,'High School',Near,Female,63,6
294,25,84,Medium,Low,Yes,6,84,Low,Yes,2,Medium,High,Public,Positive,3,No,'High School',Near,Male,70,7
295,22,73,Low,Medium,Yes,9,72,Low,Yes,3,Medium,Medium,Public,Positive,3,No,'High School',Near,Female,66,7
296,16,83,Medium,High,Yes,7,56,Low,Yes,4,High,Medium,Public,Positive,3,No,'High School',Near,Female,68,6
297,25,73,Low,Low,No,8,69,Medium,Yes,3,Medium,Medium,Private,Positive,3,No,'High School',Near,Female,66,7
298,22,63,Low,Low,No,8,83,Medium,Yes,3,Medium,Medium,Private,Negative,1,No,College,Near,Male,63,3
299,25,69,High,Medium,Yes,9,98,Medium,Yes,1,Low,Medium,Public,Negative,3,Yes,College,Moderate,Female,66,5
300,24,68,Medium,Medium,Yes,6,74,Medium,Yes,1,Medium,Medium,Public,Neutral,3,No,'High School',Near,Female,65,7
301,15,77,Medium,Medium,Yes,8,85,High,Yes,1,Low,Medium,Public,Positive,2,No,Postgraduate,Moderate,Male,66,10
302,17,86,High,Low,Yes,4,60,High,Yes,2,High,Low,Private,Positive,3,Yes,College,Moderate,Female,67,5
303,24,71,Medium,Medium,Yes,7,81,Medium,Yes,0,Low,Medium,Private,Positive,3,No,'High School',Near,Male,66,10
304,24,60,Low,Medium,No,6,62,High,Yes,4,Low,High,Public,Negative,3,No,'High School',Near,Female,63,2
305,20,81,Medium,Medium,Yes,6.943491,60,Low,Yes,3,Medium,Medium,Public,Positive,4,Yes,'High School',Near,Male,66,6
306,21,84,Medium,Medium,No,6,75,Low,No,1,High,Medium,Public,Positive,3,No,College,Moderate,Male,67,7
307,28,99,Medium,Medium,Yes,6,61,Medium,No,1,Low,Medium,Public,Positive,3,No,'High School',Near,Male,71,2
308,16,84,Medium,High,Yes,7,86,Medium,Yes,1,Low,Medium,Private,Neutral,2,No,'High School',Near,Female,67,10
309,23,79,Medium,High,Yes,6,97,Medium,Yes,1,High,Low,Public,Neutral,4,No,'High School',Moderate,Male,69,8
310,19,83,Medium,Medium,Yes,7,70,Medium,Yes,2,Low,Medium,Public,Negative,4,Yes,Postgraduate,Near,Female,67,5
311,19,97,High,Medium,Yes,6,66,High,Yes,2,Medium,Medium,Private,Positive,2,No,College,Moderate,Female,72,8
312,27,93,Medium,Low,No,6,59,High,Yes,2,Low,Medium,Private,Negative,4,No,'High School',Near,Female,70,3
313,25,73,Medium,High,Yes,7,70,Low,Yes,0,Low,Medium,Private,Neutral,4,No,Postgraduate,Moderate,Male,67,2
314,25,69,Low,High,Yes,7,78,Medium,Yes,0,Low,High,Public,Negative,3,No,'High School',Far,Female,64,7
315,28,71,Medium,Medium,No,8,69,High,Yes,1,Medium,High,Private,Neutral,1,No,College,Moderate,Female,67,5
316,20,80,Low,High,No,8,81,Medium,Yes,3,Medium,Medium,Private,Negative,4,No,Postgraduate,Near,Male,69,5
317,24,90,Low,Medium,No,7,83,Medium,Yes,0,Low,Medium,Private,Positive,3,No,College,Near,Male,68,8
318,18,80,Medium,Medium,No,8,55,Low,Yes,2,Low,Low,Public,Neutral,3,No,'High School',Moderate,Male,63,9
319,22,63,Medium,High,Yes,7,85,Medium,Yes,4,High,High,Public,Negative,3,No,College,Near,Female,68,8
320,19,89,High,Medium,Yes,7,95,Medium,Yes,0,Medium,Medium,Public,Positive,3,No,'High School',Near,Male,70,10
321,21,92,Medium,Low,Yes,8,51,Low,Yes,0,Medium,Medium,Public,Neutral,2,No,College,Moderate,Male,66,2
322,24,72,High,High,No,6,78,High,Yes,0,Low,High,Public,Negative,6,No,'High School',Near,Female,68,10
323,15,87,High,Low,Yes,4,80,High,Yes,0,Low,Medium,Private,Positive,3,No,College,Near,Male,67,7
324,33,77,Low,High,Yes,5,85,Medium,Yes,0,Low,Medium,Private,Neutral,5,No,'High School',Far,Female,69,5
325,14,96,Medium,Low,Yes,9,69,High,Yes,0,Medium,Medium,Private,Negative,3,Yes,College,Near,Female,66,7
326,13,79.831143,Medium,Medium,Yes,7,91,Medium,Yes,3,Low,Medium,Public,Positive,3,No,'High School',Near,Male,68,3
327,27,81,Medium,Medium,Yes,7,77,Medium,Yes,2,Medium,Low,Public,Neutral,2,Yes,Postgraduate,Moderate,Female,69,4
328,25,88,Medium,Medium,Yes,7,70,Low,Yes,1,Medium,Medium,Private,Positive,3,No,Postgraduate,Moderate,Male,70,7
329,24,95,Medium,High,Yes,8,86,High,Yes,1,Medium,High,Private,Neutral,3,No,College,Near,Male,74,2
330,24,80,Medium,High,Yes,7,96,High,Yes,0,Low,High,Public,Positive,0,No,College,Moderate,Female,70,2
331,20,73,Medium,Medium,Yes,7,91,Low,Yes,1,Medium,High,Public,Neutral,2,No,Postgraduate,Moderate,Male,66,1
332,15,90,High,Medium,Yes,8,97,Medium,Yes,1,Low,High,Private,Negative,3,No,College,Near,Female,69,1
333,20,69,Medium,High,No,6,63,Low,Yes,0,Low,Medium,Public,Negative,3,No,Postgraduate,Near,Male,64,1
334,16,76,Low,High,Yes,8,56,Medium,No,1,Low,Medium,Public,Positive,1,No,'High School',Near,Male,62,6
335,26,95,Low,High,No,7,77,Medium,Yes,0,Medium,Medium,Public,Neutral,3,No,'High School',Moderate,Female,70,5
336,19,89,High,Medium,Yes,7,52,Medium,Yes,2,Medium,Medium,Public,Positive,4,No,'High School',Moderate,Male,68,10
337,15,76,Medium,Medium,Yes,6,84,Low,Yes,0,Medium,High,Public,Neutral,3,No,College,Near,Female,65,8
338,18,69,High,High,No,7,62,Low,Yes,3,Medium,Medium,Public,Positive,3,No,'High School',Moderate,Male,65,5
339,22,74,High,High,Yes,6,73,Low,Yes,3,High,High,Public,Positive,4,No,Postgraduate,Moderate,Female,71,1
340,17,71,High,Medium,Yes,9,83,Low,Yes,2,Medium,Medium,Public,Neutral,5,No,'High School',Near,Male,66,8
341,15,67,Medium,Medium,No,4,74,Medium,Yes,0,Low,Medium,Public,Negative,3,No,College,Moderate,Male,61,6
342,21,90,Low,Medium,Yes,8,62,Low,Yes,2,Medium,High,Public,Negative,5,Yes,'High School',Near,Male,67,8
343,21,70,Low,High,Yes,4,94,Medium,Yes,0,Low,High,Private,Neutral,2,No,College,Far,Male,65,2
344,17,78,Medium,High,No,8,88,Medium,Yes,0,Low,Medium,Public,Negative,3,No,'High School',Near,Female,65,10
345,17,75,Medium,High,Yes,6,80,Medium,No,1,Low,Medium,Private,Positive,5,No,'High School',Moderate,Male,65,8
346,21,99,Medium,Medium,No,8,75.169371,High,Yes,4,Medium,Medium,Public,Positive,4,No,'High School',Moderate,Male,73,6
347,11,76,Medium,Medium,Yes,7,71,Medium,No,1,Medium,Low,Public,Neutral,2,No,College,Near,Male,62,1
348,12,63,Medium,High,Yes,5,69,Low,Yes,0,Medium,High,Public,Negative,2,No,'High School',Moderate,Female,60,1
349,16,64,Low,Medium,Yes,9,58,Low,Yes,1,Medium,Medium,Public,Positive,3,No,College,Moderate,Female,61,10
350,19,79.831143,Low,Medium,Yes,8,90,High,Yes,2,Low,Medium,Private,Neutral,3,No,Postgraduate,Far,Male,67,5
351,22,84,High,Medium,No,8,69,Medium,No,3,Medium,High,Private,Neutral,4,No,College,Near,Male,67.281534,7
352,29,77,Low,High,No,6,85,Medium,Yes,1,Medium,Medium,Public,Positive,1,No,College,Near,Male,69,4
353,25,77,Medium,Low,Yes,8,65,High,No,0,Medium,Medium,Public,Positive,5,No,College,Far,Female,66,10
354,19,62,Medium,Medium,No,5,90,Low,Yes,1.516785,Low,High,Public,Positive,3,No,College,Moderate,Male,64,5
355,20.147624,81,High,Medium,Yes,4,55,Medium,Yes,1,High,Medium,Private,Positive,2,No,Postgraduate,Moderate,Male,68,10
356,14,80,High,Medium,Yes,5,81,Medium,Yes,1,Low,Medium,Public,Positive,4,No,Postgraduate,Far,Female,67,3
357,20,66,Medium,Medium,No,6,90,High,Yes,0,Medium,Medium,Public,Neutral,1,No,College,Near,Female,64,2
358,18,64,Medium,Medium,Yes,6,83,High,Yes,2,Low,Medium,Public,Positive,2,No,College,Near,Male,65,2
359,22,65,Medium,High,Yes,6,85,Medium,Yes,2,High,Medium,Public,Positive,3,Yes,Postgraduate,Near,Female,66,5
360,15,64,Medium,Medium,Yes,6,76,High,Yes,2,Medium,Medium,Private,Positive,4,Yes,'High School',Near,Female,63,4
361,23,84,High,Medium,Yes,6,78,Low,Yes,2,Low,Low,Public,Negative,2,No,'High School',Moderate,Female,68,2
362,29,68,Medium,High,Yes,4,53,Medium,Yes,1,Medium,Medium,Private,Negative,4,No,'High School',Far,Male,66,5
363,19,70,Medium,Medium,No,7,63,Low,No,3,Low,Low,Public,Neutral,5,No,'High School',Near,Male,63,10
364,22,67,Low,Medium,No,7,86,Low,Yes,1,Low,Medium,Public,Positive,3,No,'High School',Moderate,Female,63,9
365,24,98,High,Medium,Yes,6,97,Medium,Yes,1,Medium,Medium,Public,Positive,4,No,College,Far,Male,74,8
366,18,94,Medium,High,Yes,9,77,Low,Yes,1,Medium,High,Public,Positive,2,No,College,Moderate,Male,70,9
367,21,69,High,High,Yes,7,86,Medium,Yes,2,Low,Medium,Private,Neutral,3,No,'High School',Near,Male,68,9
368,20,73,Medium,Medium,Yes,7,84,Medium,Yes,0,Medium,Medium,Public,Neutral,4,No,Postgraduate,Moderate,Female,66,8
369,21,68,Medium,Low,No,8,100,Low,Yes,0,Medium,Medium,Public,Positive,4,No,'High School',Far,Male,63,9
370,15,80,Low,High,No,5,90,Medium,Yes,4,Low,Medium,Public,Positive,3,No,College,Far,Female,67,4
371,20,61,Medium,Medium,No,7,81,Medium,Yes,1,Medium,Low,Public,Neutral,3,No,'High School',Moderate,Male,62,8
372,23,87,High,High,No,8,56,Medium,Yes,1.516785,Medium,High,Public,Positive,3,No,Postgraduate,Moderate,Male,71,2
373,29,81,High,Medium,No,7,68,Medium,Yes,2,Medium,Medium,Public,Neutral,4,No,Postgraduate,Near,Male,72,9
374,26,96,Medium,Medium,Yes,5,63,Medium,No,1,High,Medium,Private,Positive,2,No,Postgraduate,Near,Male,72,9
375,33,67,Medium,Medium,Yes,6,93,High,Yes,0,Low,High,Public,Neutral,3,No,'High School',Far,Female,68,3
376,15,92,Medium,Low,Yes,7,72,Low,Yes,1,Medium,Medium,Public,Negative,5,No,'High School',Near,Female,66,6
377,25,92,Medium,Medium,No,4,77,Medium,Yes,0,Low,Medium,Public,Positive,3,No,'High School',Near,Male,70,7
378,21,65,Medium,Low,Yes,5,98,High,No,2,Low,Medium,Private,Positive,4,No,Postgraduate,Near,Male,66,3
379,33,76,Medium,Medium,Yes,10,92,Low,Yes,1,High,Medium,Private,Positive,3,No,Postgraduate,Near,Female,72,5
380,15,67,High,Medium,Yes,8,89,Low,Yes,0,High,High,Public,Neutral,4,No,'High School',Moderate,Female,64,1
381,15,70,High,Medium,No,9,57,Medium,Yes,1,Medium,Medium,Private,Negative,3,No,'High School',Near,Female,63,3
382,16,71,Medium,Medium,No,8,51,Medium,Yes,0,Low,Medium,Public,Negative,2,No,Postgraduate,Far,Female,61,8
383,7,82,High,High,Yes,8,56,Medium,Yes,0,Low,Medium,Private,Negative,2,No,'High School',Far,Male,62,3
384,17,76,Medium,High,No,7,87,High,Yes,1,Medium,High,Public,Positive,4,No,'High School',Near,Female,68,8
385,15,98,Low,Medium,Yes,8,71,Low,Yes,1,Medium,Medium,Public,Positive,3,No,'High School',Near,Male,68,9
386,21,65,Low,Medium,No,9,56,High,Yes,1,Medium,Medium,Public,Positive,5,No,'High School',Moderate,Male,63,6
387,22,99,Medium,Low,Yes,8,87,Low,Yes,1,Medium,Medium,Private,Neutral,4,No,'High School',Moderate,Female,70,7
388,31,69,High,Low,Yes,7,60,Medium,Yes,1,Low,Medium,Public,Neutral,3,No,Postgraduate,Near,Female,68,6
389,26,91,High,Medium,Yes,7,79,Medium,Yes,1,Low,Medium,Private,Neutral,5,No,'High School',Near,Female,72,8
390,17,74,Medium,Medium,Yes,8,87,Medium,Yes,4,Low,Low,Public,Positive,3,No,College,Near,Male,67,7
391,15,66,Low,High,No,6,80,Medium,No,1,Low,Medium,Private,Neutral,1,No,College,Near,Male,61,10
392,23,94,Low,Medium,No,8,100,Medium,No,0,Low,Medium,Public,Neutral,3,No,Postgraduate,Near,Male,69,1
393,12,72,Medium,Low,Yes,6,72,High,Yes,2,Low,High,Private,Negative,2,No,'High School',Moderate,Female,67.281534,3
394,31,86,High,High,Yes,6,66,Medium,Yes,1.516785,Medium,Medium,Public,Positive,3,No,College,Moderate,Male,75,3
395,27,83,High,Low,No,5,60,Medium,Yes,0,High,Low,Public,Neutral,2,No,College,Moderate,Female,68,3
396,17,79,Medium,Low,Yes,6,75,Low,Yes,1,Medium,High,Public,Neutral,4,No,'High School',Near,Male,65,4
397,10,80,High,Medium,Yes,6,93,High,Yes,4,Medium,Medium,Public,Negative,3,No,College,Moderate,Female,67,1
398,28,89,Medium,High,Yes,10,97,High,Yes,3,Medium,Low,Public,Negative,6,No,'High School',Near,Female,75,2
399,19,64,Low,Medium,No,6,99,Medium,Yes,1,Medium,Medium,Public,Positive,3,No,College,Near,Male,64,5
400,27,87,Medium,Medium,No,8,77,Medium,Yes,1,Low,High,Public,Neutral,4,No,'High School',Moderate,Male,70,6
401,10,96,High,High,No,6,80,Medium,No,0,Medium,Medium,Public,Neutral,4,No,'High School',Moderate,Female,67,9
402,16,62,Medium,Medium,Yes,7,79,Low,Yes,2,Medium,Medium,Public,Neutral,3,No,'High School',Near,Male,63,2
403,20,66,High,High,No,7,73,Medium,Yes,1,Medium,Medium,Public,Negative,4,No,'High School',Near,Female,65,9
404,20,89,Medium,Medium,Yes,4,58,Medium,Yes,1,Medium,Medium,Public,Positive,3,No,'High School',Far,Female,67,7
405,17,77,Low,High,Yes,5,53,Medium,Yes,2,High,Medium,Public,Neutral,3,No,College,Near,Male,86,9
406,24,76,Low,High,No,6,72,High,Yes,3,Medium,High,Public,Neutral,3,Yes,'High School',Moderate,Female,67,4
407,14,65,High,Medium,No,5,59,Low,Yes,1,High,Medium,Public,Positive,4,No,Postgraduate,Far,Male,63,7
408,19,80,Medium,Medium,No,7,94,Medium,Yes,0,Medium,Low,Public,Neutral,3,No,College,Moderate,Female,66,1
409,21,65,High,High,No,7,88,Low,Yes,2,Low,Medium,Private,Neutral,1,No,'High School',Near,Male,65,8
410,23,79,Medium,Medium,No,5,81,Medium,Yes,1,Medium,Medium,Private,Neutral,3,No,'High School',Near,Female,67,7
411,24,91,Medium,Medium,No,7,52,Low,Yes,0,High,High,Public,Neutral,4,No,College,Near,Male,69,7
412,13,70,High,High,No,6,81,Medium,Yes,2,Medium,Low,Public,Positive,2,No,Postgraduate,Near,Male,66,2
413,11,79,Medium,Medium,Yes,7,81,Medium,Yes,1,High,Medium,Public,Neutral,2,No,'High School',Moderate,Male,64,10
414,28,79.831143,High,Low,Yes,6,72,Medium,Yes,1,Low,Medium,Public,Negative,2,No,Postgraduate,Near,Female,73,9
415,22,87,Low,Medium,No,8,75.169371,Low,Yes,1,Low,Medium,Public,Neutral,1,No,College,Far,Male,66,8
416,16,94,Medium,Medium,No,9,93,Low,Yes,1,Low,Medium,Public,Negative,4,No,Postgraduate,Near,Female,68,1
417,29,77,High,Low,Yes,8,88,Low,Yes,0,Medium,High,Public,Positive,4,No,College,Moderate,Male,70,1
418,21,91,High,Medium,No,9,74,Medium,Yes,2,Low,Low,Private,Negative,2,No,'High School',Near,Female,69,5
419,27,62,Medium,High,Yes,5,63,Low,Yes,4,High,Medium,Public,Negative,4,No,'High School',Near,Female,67,2
420,20,65,Medium,Low,No,6,74,Low,Yes,0,Medium,Medium,Private,Positive,3,No,College,Moderate,Male,62,1
421,32,68,Medium,Low,No,8,97,High,Yes,1,Low,Medium,Public,Positive,2,No,'High School',Near,Male,68,10
422,31,76,Medium,High,Yes,9,91,Medium,Yes,1,Low,Medium,Private,Neutral,4,No,Postgraduate,Near,Male,72,8
423,19,94,Low,Medium,No,8,51,Medium,Yes,3,Medium,Low,Private,Positive,5,No,Postgraduate,Near,Male,69,4
424,26,74,Low,Low,No,5,89,Low,Yes,3,High,High,Private,Negative,2,No,'High School',Near,Male,66,2
425,24,86,High,High,No,6,59,Medium,Yes,1,Low,Medium,Public,Positive,3,No,'High School',Moderate,Female,70,5
426,28,88,High,Medium,No,8,79,Medium,Yes,0,Medium,Medium,Public,Positive,3,No,'High School',Far,Male,71,6
427,14,83,Medium,Medium,Yes,7,90,Medium,Yes,0,Low,Low,Public,Negative,3,No,College,Near,Female,65,8
428,24,74,High,Medium,Yes,6,78,Medium,Yes,3,Low,High,Public,Positive,3,No,College,Near,Female,70,7
429,26,83,Low,Low,No,7,70,High,No,2,Medium,High,Public,Negative,4,Yes,'High School',Moderate,Male,65,7
430,9,74,Medium,High,No,7,66,Low,Yes,1,High,High,Private,Neutral,3,No,'High School',Far,Female,62,1
431,13,63,High,Medium,Yes,5,65,Medium,Yes,2,High,Medium,Private,Neutral,2,No,'High School',Far,Male,62,3
432,8,100,High,Medium,Yes,8,92,Medium,Yes,1,Medium,High,Public,Neutral,3,No,Postgraduate,Moderate,Female,70,3
433,18,65,Medium,High,Yes,6,91,Medium,No,5,Low,Medium,Private,Neutral,3,No,College,Near,Male,66,7
434,24,63,Medium,Low,Yes,7,91,Low,Yes,4,Low,Medium,Private,Positive,4,No,'High School',Near,Female,67,2
435,29,95,Medium,Low,No,9,64,Medium,Yes,1,Medium,High,Public,Positive,3,No,'High School',Near,Female,72,10
436,20,72,High,Low,Yes,7,90,Low,Yes,0,Low,High,Public,Negative,3,No,Postgraduate,Near,Female,66,?
437,30,86,Medium,Low,Yes,8,52,Medium,Yes,2,Medium,Medium,Public,Negative,2,Yes,College,Moderate,Female,68,9
438,20.147624,73,High,Medium,No,5,60,Medium,Yes,1,Low,Medium,Public,Negative,4,No,'High School',Moderate,Male,62,1
439,10,76,Low,Medium,Yes,8,76,Medium,Yes,2,High,High,Private,Positive,3,Yes,Postgraduate,Moderate,Male,64,2
440,20,70,Medium,Medium,No,8,70,Medium,Yes,0,Low,Medium,Public,Neutral,5,No,Postgraduate,Near,Female,65,6
441,22,74,Medium,Low,Yes,6,56,Low,Yes,4,Medium,High,Public,Negative,3,No,Postgraduate,Moderate,Male,66,2
442,20,76,Medium,Low,No,7,52,Medium,Yes,2,Low,High,Private,Neutral,3,No,'High School',Near,Female,64,2
443,8,89,Medium,High,Yes,7,81,Low,Yes,4,Low,Medium,Public,Neutral,3,No,College,Near,Male,67,5
444,19,80,High,Medium,Yes,7,66,Low,Yes,4,Medium,Medium,Public,Negative,4,No,College,Near,Female,69,7
445,12,98,High,Medium,Yes,8,51,Medium,Yes,0,Medium,Low,Public,Positive,5,No,Postgraduate,Moderate,Male,68,4
446,24,62,Medium,Medium,No,6,72,High,Yes,2,Low,Low,Public,Neutral,4,No,'High School',Near,Male,64,6
447,22,80,High,Medium,Yes,7,65,Medium,Yes,2,High,Medium,Private,Neutral,2,No,'High School',Moderate,Female,68,3
448,14,83,Low,Low,Yes,9,75.169371,Medium,Yes,1,Medium,Low,Public,Positive,3,No,'High School',Near,Male,64,4
449,17,97,Medium,High,No,9,96,High,Yes,0,High,Medium,Public,Positive,1,No,Postgraduate,Near,Male,71,4
450,14,62,High,High,Yes,8,65,Low,Yes,3,Low,Medium,Public,Negative,2,No,'High School',Far,Male,61,4
451,20,83,Low,Medium,No,7,100,Medium,Yes,4,Low,Medium,Public,Negative,3,No,College,Near,Male,68,1
452,26,94,High,Medium,Yes,10,54,Low,Yes,2,High,Medium,Public,Neutral,5,No,'High School',Near,Male,73,4
453,14,70,High,Medium,Yes,9,54,Medium,No,3,Medium,Medium,Public,Positive,1,No,College,Near,Male,64,4
454,23,95,Medium,Medium,Yes,7,86,Medium,Yes,3,Low,Medium,Public,Positive,4,Yes,Postgraduate,Far,Male,72,6
455,17,61,Medium,Medium,Yes,7,75.169371,High,Yes,5,Medium,Medium,Public,Neutral,3,No,'High School',Near,Male,65,9
456,15,89,Medium,Medium,Yes,6,71,Medium,Yes,1,Medium,High,Public,Positive,4,No,'High School',Near,Female,68,10
457,20.147624,97,High,Low,Yes,8,64,Medium,Yes,2,Low,High,Public,Positive,3,No,'High School',Near,Male,71,6
458,14,86,Medium,Low,Yes,8,90,Medium,No,3,Medium,Medium,Public,Negative,3,Yes,Postgraduate,Near,Male,65,6
459,17,78,Medium,Medium,No,8,98,Low,Yes,2,Medium,Medium,Private,Positive,2,No,'High School',Near,Male,66,7
460,13,62,Low,High,No,7,99,Medium,Yes,4,Medium,Low,Public,Positive,1,No,Postgraduate,Moderate,Female,63,7
461,32,97,Medium,High,No,5,82,Medium,Yes,1,Medium,Medium,Public,Neutral,3,No,'High School',Moderate,Male,74,1
462,20,79,High,Low,Yes,7,75.169371,Low,No,2,Medium,High,Private,Neutral,4,Yes,'High School',Near,Female,66,8
463,16,61,Medium,Low,No,8,91,High,Yes,2,Medium,High,Public,Neutral,3,No,College,Moderate,Male,63,1
464,21,88,High,Medium,Yes,6,90,High,Yes,2,High,Medium,Private,Positive,4,No,'High School',Moderate,Male,72,9
465,19,79,Medium,High,No,7,100,Low,Yes,1,High,High,Public,Positive,2,No,College,Far,Female,69,4
466,19,65,Medium,High,Yes,9,91,Medium,Yes,1,Medium,High,Public,Positive,4,No,College,Near,Male,67,9
467,24,69,Low,High,No,5,83,Low,Yes,3,Low,Medium,Private,Neutral,3,No,'High School',Near,Male,66,8
468,25,63,High,Medium,No,7,69,Medium,Yes,0,Low,High,Private,Negative,5,No,'High School',Moderate,Female,67.281534,9
469,17,83,Low,Medium,No,9,80,Medium,Yes,4,Medium,High,Public,Negative,2,No,College,Near,Female,67,6
470,17,85,Medium,Low,No,7,94,High,Yes,4,Low,Medium,Public,Positive,3.034413,No,College,Near,Female,69,9
471,18,80,Medium,Low,Yes,6,65,Medium,Yes,2,Low,High,Public,Negative,2,No,College,Near,Female,65,4
472,6,93,Medium,Medium,No,7,52,High,Yes,0,Medium,Medium,Public,Neutral,2,No,College,Near,Female,64,3
473,11,94,Medium,Low,Yes,8,66,High,No,1,High,Low,Public,Neutral,4,No,'High School',Near,Female,65,3
474,28,85,Medium,High,Yes,7,98,Medium,Yes,2,Low,High,Private,Positive,1,Yes,'High School',Near,Male,72,8
475,30,61,Low,High,Yes,8,90,Medium,Yes,2,Low,Medium,Public,Negative,2,No,'High School',Moderate,Female,66,2
476,19,88,Medium,Low,No,7,59,Medium,Yes,2,Low,Medium,Public,Neutral,3,No,College,Near,Female,66,6
477,23,77,High,High,Yes,7,51,Medium,Yes,1,Low,Low,Private,Positive,3,No,College,Moderate,Male,67,9
478,22,83,Medium,Medium,Yes,8,83,High,Yes,1,High,Medium,Private,Negative,3,Yes,Postgraduate,Moderate,Male,69,9
479,38,86,Low,High,Yes,7,79,Low,Yes,3,Low,Medium,Public,Negative,3,No,'High School',Near,Male,73,8
480,27,74,Medium,High,No,6,54,Medium,Yes,3,Medium,Medium,Public,Neutral,3,No,College,Near,Female,69,8
481,19,97,Medium,Low,No,8,98,Medium,Yes,1,Low,Medium,Private,Neutral,4,Yes,'High School',Near,Male,68,1
482,14,65,Low,Medium,Yes,7,81,Medium,Yes,1,Low,Medium,Public,Positive,3,No,'High School',Moderate,Female,61,7
483,10,87,Medium,Low,Yes,6,83,Medium,No,0,Low,Medium,Public,Positive,4,No,'High School',Near,Male,63,1
484,21,60,Medium,High,Yes,8,93,Low,Yes,0,Low,Medium,Public,Positive,2,No,'High School',Near,Female,63,9
485,15,97,Low,Medium,Yes,9,67,Medium,Yes,1,Low,High,Public,Neutral,2,No,College,Near,Male,68,3
486,11,65,Medium,High,No,7,78,Medium,Yes,2,Low,Medium,Public,Neutral,3,No,Postgraduate,Near,Male,63,1
487,16,64,High,Medium,Yes,7,79,Medium,Yes,3,Medium,Medium,Private,Positive,4,Yes,Postgraduate,Near,Female,66,8
488,14,73,High,Medium,Yes,5,98,Medium,Yes,2,Low,Medium,Public,Negative,4,No,'High School',Moderate,Female,65,7
489,30,75,High,High,No,7,57,High,Yes,0,Low,Medium,Public,Neutral,1,Yes,College,Near,Female,68,2
490,25,69,Medium,Medium,Yes,7,88,High,Yes,0,Low,Medium,Public,Negative,4,No,College,Near,Female,66,7
491,20,83,Low,Low,No,7,79,Low,No,2,Medium,Medium,Public,Positive,5,No,Postgraduate,Moderate,Male,66,5
492,29,78,High,Medium,No,6,92,Medium,Yes,2,Low,Medium,Private,Negative,4,No,'High School',Near,Male,70,7
493,20,61,Low,Low,Yes,8,92,Medium,Yes,0,Medium,Medium,Public,Negative,2,No,'High School',Near,Female,61,10
494,15,73,Medium,Low,Yes,7,51,Medium,Yes,2,Low,High,Private,Negative,3,No,'High School',Moderate,Male,61,7
495,29,92,Medium,Medium,Yes,10,63,High,Yes,1,Low,High,Private,Negative,4,No,'High School',Moderate,Male,71,2
496,23,88,Low,Medium,Yes,7,59,Medium,Yes,1,Medium,Medium,Public,Negative,2,No,'High School',Near,Male,67,2
497,14,89,High,High,Yes,4,73,Medium,Yes,2,Medium,High,Public,Negative,3,No,College,Near,Male,70,7
498,19,88,High,Medium,No,5,95,Medium,Yes,2,Low,Medium,Private,Negative,4,No,College,Moderate,Male,69,3
499,15,72,High,High,No,8,50,Medium,Yes,2,Medium,Medium,Public,Neutral,4,No,'High School',Near,Female,65,4
500,12,64,High,Low,Yes,6,74,High,Yes,0,Medium,Medium,Public,Positive,2,No,'High School',Moderate,Male,61,7
501,26,71,Medium,Low,No,6,94,Low,Yes,3,Low,Medium,Public,Positive,4,No,Postgraduate,Near,Male,68,2
502,31,93,High,Low,Yes,5,96,Medium,Yes,2,Low,Medium,Public,Positive,2,No,'High School',Near,Male,74,2
503,12,99,Medium,Medium,No,6,83,Low,Yes,1,Medium,Medium,Public,Negative,3,No,'High School',Near,Female,67,9
504,23,80,Medium,Medium,Yes,7,91,Low,Yes,5,High,Medium,Public,Negative,1,No,'High School',Near,Female,70,1
505,16,60,Low,Medium,Yes,8,66,Low,Yes,1,High,High,Private,Neutral,2,Yes,'High School',Moderate,Female,59,3
506,17,66,High,High,No,5,64,Low,Yes,0,Medium,High,Private,Neutral,2,No,College,Near,Male,64,10
507,16,73,High,Medium,Yes,8,52,Medium,Yes,2,Medium,High,Public,Positive,4,No,College,Near,Female,66,4
508,15,83,Low,Low,Yes,5,75,Medium,Yes,1,Medium,Medium,Public,Neutral,3,No,'High School',Far,Female,63,5
509,20,63,Low,Low,Yes,8,73,Low,Yes,1.516785,High,Medium,Public,Neutral,3,No,College,Near,Female,61,3
510,15,98,Low,High,Yes,8,69,Low,Yes,2,Low,Medium,Public,Neutral,4,No,'High School',Moderate,Female,68,9
511,22,75,Medium,Medium,No,6,56,Low,Yes,3,Medium,Medium,Private,Positive,3,No,'High School',Far,Male,65,5
512,20,97,Medium,High,No,5,62,Medium,Yes,1,Medium,Medium,Private,Neutral,4,No,'High School',Far,Male,69,7
513,19,91,High,Low,Yes,8,60,Medium,Yes,2,Low,Medium,Private,Neutral,4,No,'High School',Moderate,Male,68,7
514,15,90,Medium,Low,Yes,6,97,Low,Yes,2,High,High,Public,Positive,2,No,'High School',Near,Male,69,9
515,17,84,Medium,Low,Yes,7,98,High,Yes,1,Low,High,Public,Positive,2,No,College,Far,Female,67,2
516,25,85,High,High,No,8,50,High,Yes,1,High,Medium,Public,Neutral,1,No,College,Moderate,Female,70,3
517,23,86,Medium,Medium,Yes,8,59,Low,Yes,1,Low,Medium,Public,Neutral,3,No,Postgraduate,Moderate,Female,68,4
518,14,85,Medium,Medium,No,6,94,Low,Yes,0,High,Medium,Public,Positive,4,No,College,Near,Male,67,8
519,21,82,High,Medium,No,7,52,Medium,Yes,4,Low,Medium,Public,Neutral,3,No,'High School',Far,Male,67,1
520,25,99,High,Medium,Yes,6,97,High,Yes,0,Medium,Medium,Public,Positive,3,No,College,Moderate,Male,75,9
521,10,89,Low,Low,Yes,8,69,Low,Yes,3,Low,Medium,Public,Negative,4,No,College,Near,Male,63,5
522,23,91,Low,Medium,No,9,77,High,Yes,1,Low,Medium,Public,Positive,5,No,'High School',Near,Male,70,4
523,16,95,Medium,Low,Yes,6,88,Low,Yes,2,High,High,Public,Positive,4,No,'High School',Near,Female,70,8
524,23,69,Medium,High,Yes,7,62,Medium,Yes,1,Medium,Medium,Public,Neutral,4,Yes,'High School',Far,Male,64,9
525,15,63,Medium,Low,No,8,55,Low,Yes,0,Medium,Low,Public,Neutral,3,No,College,Near,Female,59,3
526,9,79,Medium,Low,No,7,90,High,Yes,1,High,Low,Public,Neutral,3,No,'High School',Near,Male,63,4
527,10,81,High,Medium,Yes,8,99,Medium,No,2,Medium,Medium,Public,Positive,4,No,Postgraduate,Moderate,Female,67,1
528,20,93,Low,High,Yes,7,83,Medium,Yes,0,Medium,Medium,Private,Negative,2,Yes,'High School',Near,Male,68,3
529,22,78,Medium,Medium,Yes,5,91,Low,Yes,0,Medium,High,Private,Negative,3,No,Postgraduate,Near,Male,68,10
530,20.147624,83,Medium,Medium,No,7,97,Medium,Yes,2,Low,High,Private,Neutral,2,No,'High School',Near,Female,97,5
531,24,81,Medium,Low,No,9,61,Medium,Yes,1,Low,Low,Public,Positive,4,No,College,Near,Female,66,?
532,10,62,Medium,Low,No,7,68,High,Yes,3,Medium,Medium,Public,Neutral,3,No,Postgraduate,Near,Male,61,1
533,20,85,High,Medium,No,9,61,High,Yes,2,High,Medium,Public,Positive,3,No,College,Near,Male,70,1
534,13,93,Low,Low,Yes,4,53,High,Yes,1,Medium,Low,Public,Positive,1,No,Postgraduate,Near,Male,65,3
535,16,66,Low,Medium,Yes,8,87,High,Yes,3,Medium,Medium,Public,Positive,2,No,'High School',Moderate,Female,64,9
536,20,84,Medium,High,Yes,6,57,High,Yes,2,Medium,Medium,Public,Positive,3.034413,No,'High School',Far,Female,69,9
537,15,84,Medium,High,No,6,55,Low,Yes,1,Medium,Medium,Private,Negative,2,No,'High School',Near,Male,64,1
538,18,67,Low,Low,Yes,9,68,Low,Yes,2,Low,High,Private,Negative,2,No,Postgraduate,Near,Male,61,4
539,26,65,Low,Medium,No,7,53,Low,Yes,3,High,Medium,Public,Positive,2,No,'High School',Near,Female,64,8
540,17,99,Medium,High,No,6,75.169371,Medium,Yes,0,Medium,Medium,Public,Neutral,3,No,'High School',Moderate,Male,68,2
541,25,76,Medium,High,No,8,53,High,Yes,1,High,High,Public,Positive,3,Yes,'High School',Near,Female,67,4
542,13,79.831143,High,Low,No,4,94,Medium,Yes,3,Low,Low,Public,Positive,3,Yes,'High School',Near,Male,62,7
543,23,67,Medium,Medium,Yes,9,89,Medium,Yes,2,Low,High,Public,Neutral,2,No,'High School',Near,Female,66,7
544,29,87,Medium,High,Yes,10,93,High,Yes,1,Low,Medium,Public,Neutral,4,No,'High School',Moderate,Male,72,5
545,5,84,Medium,Medium,Yes,8,93,High,Yes,4,High,High,Public,Positive,3,No,College,Moderate,Male,68,7
546,15,86,Medium,High,Yes,8,97,Medium,Yes,4,High,Medium,Public,Positive,3,No,'High School',Near,Male,71,6
547,23,64,Medium,Medium,Yes,7,59,High,Yes,3,Medium,Medium,Public,Positive,2,No,'High School',Moderate,Female,65,2
548,20.147624,96,Medium,Low,Yes,5,95,Low,No,2,Medium,Low,Private,Neutral,3,No,'High School',Moderate,Female,68,9
549,22,76,Medium,Low,No,9,76,Medium,Yes,2,Low,High,Public,Neutral,5,No,'High School',Far,Female,65,5
550,16,73,High,Low,Yes,8,58,Medium,Yes,1,Medium,Medium,Public,Neutral,4,No,'High School',Near,Female,64,2
551,21,78,Medium,Low,No,8,83,Medium,Yes,2,Medium,Medium,Public,Positive,4,Yes,'High School',Far,Male,65,6
552,19,76,High,High,Yes,8,66,Low,Yes,0,Low,High,Private,Negative,4,Yes,'High School',Near,Male,65,10
553,27,95,High,Medium,No,7,52,High,Yes,3,Medium,High,Private,Negative,3,No,College,Moderate,Female,73,5
554,22,97,Medium,High,Yes,6,54,Medium,Yes,1,Low,High,Public,Positive,3,No,Postgraduate,Near,Male,72,2
555,22,72,Low,Medium,Yes,10,71,Medium,Yes,1,Medium,Medium,Private,Negative,1,No,College,Near,Male,64,10
556,18,95,Medium,Medium,Yes,7,91,Low,Yes,0,Low,Medium,Public,Positive,4,Yes,Postgraduate,Moderate,Male,69,10
557,17,91,Medium,Medium,No,6,66,High,Yes,1,High,Medium,Private,Positive,3,No,'High School',Near,Male,69,7
558,17,97,Medium,High,Yes,9,88,Medium,No,0,Medium,Medium,Public,Positive,2,No,'High School',Near,Male,70,10
559,22,70,Low,Medium,No,7,53,Low,Yes,1,Low,Medium,Public,Positive,3,No,'High School',Near,Female,83,2
560,17,83,High,Medium,No,7,70,Low,Yes,3,Low,Medium,Private,Neutral,5,No,Postgraduate,Near,Female,68,7
561,22,71,Low,High,Yes,9,56,High,Yes,1,Low,High,Public,Neutral,3,Yes,College,Near,Female,84,6
562,32,93,Medium,Medium,Yes,8,93,High,Yes,1,Medium,High,Public,Negative,3,No,Postgraduate,Far,Female,75,4
563,20.147624,60,Low,High,No,8,98,Medium,Yes,1,Medium,Medium,Public,Neutral,5,No,Postgraduate,Near,Female,67,4
564,18,83,Medium,High,Yes,5,66,Medium,Yes,0,High,Medium,Private,Positive,4,No,Postgraduate,Near,Male,69,6
565,27,74,High,Medium,No,8,99,High,No,3,Medium,Medium,Public,Positive,4,No,'High School',Near,Male,71,9
566,18,73,Medium,Low,Yes,5,88,Medium,Yes,1,Medium,Medium,Public,Positive,5,No,College,Near,Female,66,10
567,8,86,Medium,High,No,6,50,High,Yes,1.516785,Medium,Medium,Public,Positive,2,No,College,Near,Male,65,6
568,14,94,High,Medium,No,6.943491,74,Medium,Yes,1,High,Medium,Private,Positive,5,No,College,Near,Male,70,6
569,9,84,High,Low,No,7,92,High,Yes,1,Low,High,Public,Negative,4,No,Postgraduate,Near,Male,66,1
570,18,94,High,Medium,Yes,8,77,Medium,Yes,3,Medium,High,Public,Positive,4,No,Postgraduate,Near,Male,74,5
571,20,71,High,Medium,No,8,77,Medium,Yes,0,High,Medium,Private,Neutral,4,No,'High School',Moderate,Male,66,1
572,30,81,Medium,High,No,8,72,Low,Yes,0,Low,Medium,Public,Neutral,2,No,'High School',Moderate,Male,68,9
573,22,78,Medium,High,Yes,5,70,Medium,Yes,2,Low,Medium,Public,Positive,1,No,College,Near,Male,68,10
574,19,60,Medium,High,No,10,75.169371,Medium,Yes,0,Medium,Medium,Public,Positive,3,Yes,College,Near,Female,62,4
575,25,82,Medium,High,Yes,7,81,Medium,Yes,2,Medium,Medium,Private,Neutral,2,No,Postgraduate,Near,Male,71,2
576,7,86,Medium,Low,No,9,88,Medium,Yes,2,Low,Medium,Public,Negative,2,No,College,Near,Female,63,9
577,21,84,High,High,No,4,90,Medium,Yes,2,Medium,Low,Public,Neutral,3,No,'High School',Far,Male,69,6
578,25,89,Medium,Medium,Yes,7,81,High,Yes,3,Medium,Medium,Public,Negative,0,No,College,Near,Male,71,10
579,11,83,High,Low,Yes,5,67,Medium,Yes,1,Medium,Medium,Public,Positive,2,No,Postgraduate,Near,Male,66,3
580,27,63,Medium,High,No,6,51,Low,Yes,0,Low,Medium,Public,Positive,2,No,Postgraduate,Moderate,Male,64,2
581,22,65,Medium,Medium,Yes,7,95,Low,Yes,3,Low,Medium,Public,Positive,2,No,'High School',Moderate,Female,65,6
582,18,84,Medium,High,No,6,71,Medium,Yes,4,Medium,Low,Public,Positive,2,No,'High School',Near,Female,69,10
583,24,71,Medium,Low,No,9,80,Medium,Yes,2,Medium,High,Private,Positive,3,No,'High School',Near,Female,66,6
584,34,63,Medium,High,Yes,10,60,Low,Yes,1,Medium,Medium,Public,Negative,4,No,'High School',Near,Female,67,9
585,21,77,Medium,Low,Yes,6,57,Medium,Yes,4,Low,Medium,Public,Negative,5,No,'High School',Far,Male,65,5
586,21,82,Low,Low,Yes,6,54,High,Yes,3,Low,Medium,Public,Negative,2,No,College,Moderate,Male,65,9
587,17,73,High,Medium,No,5,90,High,Yes,1,Low,Medium,Private,Positive,4,No,'High School',Near,Male,67,5
588,15,89,Low,Medium,Yes,9,82,Low,Yes,1,Medium,Medium,Public,Neutral,3,No,College,Near,Male,66,2
589,25,86,Medium,Medium,Yes,7,81,Low,Yes,1,High,Low,Public,Positive,1,No,'High School',Near,Male,69,1
590,15,73,Medium,High,No,7,96,Low,Yes,1,Low,Medium,Public,Negative,2,No,College,Near,Male,64,9
591,20,90,Medium,Medium,Yes,7,58,High,Yes,1,High,High,Private,Neutral,4,No,'High School',Near,Male,70,10
592,20.147624,86,High,Medium,Yes,7,59,Low,Yes,3,Medium,Medium,Public,Positive,3,No,Postgraduate,Moderate,Male,68,7
593,23,85,High,Low,Yes,6,59,Low,Yes,1,Medium,Medium,Public,Negative,1,No,'High School',Near,Male,68,3
594,22,82,High,Medium,Yes,7,71,Low,Yes,1,Medium,Medium,Private,Positive,3,No,'High School',Near,Female,69,6
595,26,60,Medium,Medium,Yes,7,94,High,Yes,3,High,Medium,Public,Positive,2,No,'High School',Moderate,Female,68,10
596,17,88,Medium,Medium,Yes,8,94,Medium,Yes,5,Medium,Medium,Public,Neutral,2,Yes,College,Near,Female,70,4
597,18,75,High,Medium,Yes,5,80,Medium,Yes,2,Low,High,Public,Neutral,3,No,'High School',Near,Female,67,9
598,14,98,High,High,Yes,7,83,Medium,No,3,Low,Medium,Public,Positive,3,No,College,Near,Male,72,2
599,17,93,High,Low,No,6,95,Medium,Yes,1,Low,Medium,Public,Positive,4,No,'High School',Near,Male,69,4
600,22,84,High,Medium,No,7,81,Medium,Yes,1,Medium,Low,Private,Positive,3,No,'High School',Moderate,Male,69,1
601,25,70,Low,Medium,Yes,8,61,Low,No,3,Low,Medium,Public,Positive,4,No,College,Moderate,Female,64,7
602,14,68,Low,Medium,Yes,6,85,Medium,Yes,1.516785,Medium,Medium,Public,Neutral,3,No,'High School',Near,Female,63,4
603,25,74,High,High,Yes,9,88,Medium,Yes,3,Medium,High,Public,Neutral,3.034413,Yes,'High School',Near,Male,70,5
604,28,79,High,Medium,Yes,4,82,Medium,Yes,0,Medium,Medium,Private,Positive,3,No,'High School',Near,Male,70,1
605,22,72,High,Medium,Yes,9,64,Low,Yes,1,Medium,Medium,Public,Negative,2,No,College,Near,Female,66,2
606,31,81,Medium,Medium,No,9,70,Low,Yes,1.516785,Low,Medium,Public,Neutral,4,No,Postgraduate,Near,Female,70,4
607,15,67,Medium,High,Yes,6,74,High,Yes,0,High,Medium,Public,Positive,2,No,Postgraduate,Near,Female,66,2
608,13,99,Medium,Medium,Yes,6,57,Medium,Yes,1,Low,Medium,Public,Negative,5,No,College,Near,Male,68,1
609,9,64,Medium,Medium,No,5,73,Medium,Yes,1,Medium,Medium,Public,Positive,4,No,College,Near,Male,61,10
610,29,97,Medium,Medium,No,8,58,Medium,Yes,1,High,Medium,Private,Negative,4,No,College,Moderate,Female,72,1
611,24,97,High,Low,No,7,75,Low,Yes,1,Medium,Medium,Public,Negative,2,No,'High School',Moderate,Female,69,6
612,20,81,Medium,Low,Yes,6,53,Low,Yes,0,Medium,Low,Public,Neutral,4,No,'High School',Far,Female,63,2
613,22,89,Medium,High,Yes,5,97,Medium,Yes,2,Medium,Medium,Private,Neutral,5,No,'High School',Near,Male,72,3
614,13,77,Medium,Medium,Yes,10,62,Medium,Yes,1,High,Medium,Private,Neutral,4,No,College,Moderate,Male,65,?
615,35,85,Medium,High,Yes,6,73,High,Yes,1,High,Medium,Public,Negative,5,No,'High School',Moderate,Female,74,3
616,21,74,Medium,Low,Yes,7,52,Low,Yes,1,High,Medium,Public,Negative,4,No,'High School',Far,Male,62,6
617,21,72,High,Medium,No,7,60,Low,Yes,0,Low,Medium,Private,Neutral,3.034413,No,Postgraduate,Near,Male,65,7
618,24,83,Low,High,No,6,85,Low,Yes,1,Low,High,Public,Neutral,4,No,'High School',Moderate,Female,68,10
619,23,80,Medium,Low,Yes,6,56,Medium,Yes,3,Medium,Medium,Public,Positive,2,Yes,'High School',Near,Male,66,6
620,21,83,High,Medium,Yes,6,81,Low,Yes,3,High,Medium,Public,Negative,4,No,Postgraduate,Moderate,Male,71,2
621,15,71,Medium,High,No,8,50,Low,Yes,1,Medium,Medium,Public,Neutral,2,Yes,Postgraduate,Near,Male,62,9
622,23,75,Low,High,Yes,6,73,Low,Yes,1,Low,Medium,Public,Positive,2,No,'High School',Moderate,Female,65,2
623,31,63,Medium,High,No,9,86,Low,Yes,0,High,Medium,Public,Neutral,3,No,Postgraduate,Moderate,Male,68,6
624,28,62,Medium,High,No,6,96,Medium,Yes,4,Medium,High,Public,Positive,3,No,'High School',Near,Male,70,9
625,30,70,Low,Medium,No,8,75,Medium,Yes,1,Medium,Medium,Private,Positive,2,No,'High School',Near,Female,67,9
626,17,63,Medium,Medium,No,4,92,Medium,Yes,2,Low,Medium,Public,Negative,4,No,'High School',Near,Female,63,2
627,14,64,High,High,Yes,6,90,Low,Yes,0,Low,High,Private,Negative,2,No,'High School',Near,Female,63,9
628,19,93,Medium,High,No,6,65,Medium,Yes,0,Medium,High,Public,Neutral,3,No,'High School',Near,Male,69,8
629,20,62,Low,Medium,Yes,5,94,High,Yes,3,Medium,Medium,Public,Neutral,3,No,Postgraduate,Near,Male,66,7
630,27,86,Medium,Medium,Yes,7,82,Low,Yes,2,Low,Medium,Public,Positive,3,No,'High School',Moderate,Female,70,8
631,10,71,Medium,Medium,Yes,7,55,High,Yes,2,Low,High,Public,Positive,3,No,College,Near,Female,63,10
632,29,95,Low,Medium,Yes,4,97,Medium,Yes,0,Medium,Medium,Private,Positive,4,Yes,College,Moderate,Female,72,8
633,19,79,High,Medium,Yes,10,59,Low,Yes,1,Medium,Medium,Public,Neutral,3,Yes,College,Moderate,Male,65,1
634,17,72,Medium,High,Yes,7,74,Low,Yes,2,High,Medium,Public,Positive,4,No,Postgraduate,Far,Male,67,9
635,14,81,Medium,Medium,Yes,7,73,Low,No,1,High,Medium,Private,Positive,3,Yes,'High School',Moderate,Male,63,6
636,10,75,High,Medium,No,9,81,Medium,Yes,3,Low,High,Public,Negative,5,No,'High School',Near,Female,65,1
637,25,83,Medium,Medium,Yes,8,83,Medium,Yes,1.516785,Low,Medium,Public,Neutral,1,Yes,'High School',Moderate,Female,67,1
638,20,65,Medium,Low,Yes,7,62,High,Yes,0,Medium,Medium,Public,Neutral,0,Yes,Postgraduate,Near,Male,80,7
639,12,100,Medium,Medium,Yes,4,68,Medium,Yes,2,Low,Medium,Public,Neutral,3,No,College,Far,Male,68,10
640,12,77,Medium,Medium,Yes,8,57,Medium,Yes,2,Low,High,Public,Negative,2,No,College,Moderate,Male,63,2
641,18,74,Medium,Medium,No,6,56,Medium,Yes,1,Medium,Medium,Private,Positive,3,No,College,Moderate,Male,64,6
642,30,88,Medium,Medium,No,9,91,Medium,Yes,3,Medium,Low,Public,Positive,3,No,'High School',Near,Female,73,5
643,18,75,Medium,Medium,Yes,6,88,Low,Yes,2,Medium,High,Public,Negative,1,Yes,Postgraduate,Near,Female,66,5
644,11,93,Medium,Medium,Yes,6,72,Low,Yes,2,Low,Medium,Public,Negative,3,No,College,Moderate,Male,66,10
645,19,78,High,High,No,5,55,Medium,Yes,0,Medium,Medium,Public,Neutral,4,No,'High School',Moderate,Male,66,6
646,18,89,Medium,High,Yes,5,72,Low,Yes,4,Medium,Low,Public,Neutral,2,No,'High School',Near,Female,69,8
647,4,64,Medium,High,Yes,7,65,Medium,Yes,1,Medium,High,Public,Negative,4,No,'High School',Far,Male,59,5
648,20,94,Medium,Medium,No,7,89,Medium,Yes,0,Low,Medium,Private,Neutral,1,No,'High School',Near,Male,68,8
649,19,89,Medium,Medium,No,6,55,Medium,Yes,1,Low,Medium,Private,Neutral,3,No,Postgraduate,Moderate,Female,67,5
650,24,68,Medium,Medium,Yes,10,73,Low,Yes,1,Medium,Medium,Public,Neutral,4,Yes,'High School',Moderate,Female,64,?
651,31,66,Low,High,Yes,8,80,Low,Yes,0,Low,Low,Private,Negative,4,No,'High School',Near,Female,65,6
652,27,73,Medium,Medium,No,7,99,Low,Yes,1,Low,Medium,Public,Positive,4,No,College,Near,Male,68,8
653,18,99,Medium,High,Yes,4,54,Low,Yes,0,Medium,Medium,Public,Positive,3,No,Postgraduate,Near,Male,70,2
654,13,70,Medium,Medium,No,8,56,Medium,Yes,2,Medium,High,Public,Neutral,0,No,'High School',Near,Male,62,7
655,35,78,High,Low,Yes,10,99,Medium,Yes,1,Low,Medium,Private,Positive,2,No,'High School',Near,Male,72,3
656,20,61,Medium,Low,Yes,7,70,Low,Yes,1,Medium,Medium,Private,Positive,4,No,'High School',Moderate,Female,62,9
657,20,76,High,High,Yes,6,87,Low,Yes,1,Low,Medium,Public,Negative,4,No,Postgraduate,Moderate,Male,68,10
658,20,83,High,Medium,No,7,89,Medium,Yes,3,Low,High,Private,Negative,4,No,'High School',Near,Female,69,7
659,21,98,High,Medium,No,5,66,Low,Yes,3,High,High,Public,Positive,5,No,'High School',Near,Male,73,3
660,19,81,High,High,No,8,61,Low,Yes,3,Medium,Medium,Private,Negative,5,No,Postgraduate,Near,Male,69,8
661,17,93,Medium,Medium,Yes,9,64,Medium,Yes,1,Medium,Medium,Public,Neutral,3,No,'High School',Moderate,Female,67,10
662,17,82,Medium,Low,No,6,88,Low,Yes,2,Low,Low,Private,Neutral,3,No,Postgraduate,Near,Male,65,2
663,20,62,Low,Low,No,6,92,High,Yes,2,Medium,Medium,Public,Positive,3,No,Postgraduate,Moderate,Male,63,10
664,17,73,High,Medium,Yes,7,85,Medium,Yes,2,Low,Medium,Public,Positive,2,No,'High School',Near,Male,66,8
665,16,83,Medium,Medium,No,6,72,Medium,Yes,1,Low,High,Public,Positive,2,No,College,Near,Male,66,7
666,21,98,Medium,High,No,5,63,Low,Yes,0,Low,High,Public,Neutral,2,No,Postgraduate,Near,Male,70,5
667,18,94,Medium,Medium,No,6,71,Low,Yes,2,High,Medium,Public,Neutral,3,No,Postgraduate,Far,Male,69,4
668,29,69,Medium,High,No,6,96,Low,Yes,1,High,Medium,Public,Positive,4,No,'High School',Near,Female,70,10
669,4,69,Medium,Low,No,9,93,Low,No,2,Medium,High,Private,Negative,3.034413,No,'High School',Moderate,Female,58,10
670,27,68,Medium,Medium,No,9,66,Medium,Yes,3,High,Medium,Private,Positive,3,No,'High School',Far,Male,67,1
671,27,97,High,High,Yes,9,66,Low,Yes,1,Low,Medium,Public,Positive,3,No,'High School',Far,Male,73,4
672,8,94,High,Low,No,8,89,High,Yes,0,Medium,Medium,Public,Neutral,2,No,'High School',Near,Female,66,6
673,18,91,High,High,Yes,7,71,High,Yes,0,Medium,Medium,Public,Neutral,3,No,'High School',Near,Male,70,6
674,18,76,High,High,No,6,79,Medium,Yes,1.516785,Medium,Medium,Private,Positive,2,No,Postgraduate,Far,Female,67,2
675,12,80,Low,Low,No,9,71,High,Yes,1,Low,Low,Private,Positive,3,Yes,'High School',Moderate,Female,60,9
676,15,79,High,Medium,Yes,8,62,Low,Yes,1,Low,Low,Public,Positive,3,No,College,Near,Male,65,1
677,13,70,Medium,Medium,No,5,59,Medium,Yes,0,Medium,High,Private,Positive,2,No,Postgraduate,Near,Female,63,4
678,31,80,High,High,Yes,6,57,Low,Yes,1,Medium,High,Private,Positive,3,No,'High School',Near,Female,72,4
679,26,61,Low,Medium,Yes,5,51,High,Yes,0,Low,Medium,Private,Neutral,5,No,'High School',Moderate,Female,62,2
680,28,65,Medium,Medium,Yes,4,64,Medium,Yes,6,Medium,High,Public,Neutral,3,No,Postgraduate,Near,Male,70,8
681,24,95,High,Low,Yes,8,59,Medium,Yes,2,Low,High,Public,Negative,1,No,College,Near,Male,70,2
682,13,90,Medium,Medium,No,5,63,Medium,Yes,0,Low,Medium,Public,Neutral,4,No,'High School',Moderate,Female,64,2
683,17,77,Medium,Medium,Yes,6,54,Low,Yes,3,Low,Medium,Public,Neutral,4,No,'High School',Moderate,Male,64,2
684,23,81,Medium,Low,Yes,7,67,Medium,Yes,0,Medium,High,Private,Positive,5,No,'High School',Moderate,Female,67,1
685,13,75,Medium,High,Yes,7,76,High,Yes,1,Medium,High,Public,Negative,1,No,'High School',Moderate,Male,64,5
686,24,90,Medium,Medium,Yes,6,97,Low,Yes,1,High,High,Public,Positive,4,No,'High School',Near,Male,72,4
687,19,91,Medium,Low,No,9,67,Medium,Yes,0,Medium,Medium,Private,Negative,3,No,College,Near,Female,66,2
688,18,91,Medium,Medium,No,5,52,Medium,Yes,2,Medium,Medium,Public,Negative,4,No,'High School',Moderate,Female,66,1
689,24,89,Medium,High,Yes,5,68,Medium,Yes,0,Low,High,Public,Positive,2,No,Postgraduate,Near,Female,71,1
690,23,68,Low,Low,No,8,91,Medium,Yes,5,Low,Medium,Public,Negative,5,No,Postgraduate,Near,Female,66,2
691,18,74,Medium,Low,Yes,6,67,High,Yes,2,Low,High,Public,Neutral,2,No,'High School',Near,Male,64,1
692,27,79,Medium,Low,No,6,65,Low,Yes,0,Medium,Medium,Private,Negative,2,No,College,Near,Male,66,9
693,14,73,Medium,Low,Yes,5,96,Low,Yes,1,Low,Medium,Public,Negative,3,No,'High School',Moderate,Female,62,2
694,24,90,Medium,Medium,No,8,65,Medium,Yes,4,Low,Medium,Public,Neutral,4,No,'High School',Moderate,Male,70,3
695,24,73,Medium,Medium,Yes,7,99,Medium,Yes,3,Medium,High,Private,Neutral,3,No,'High School',Near,Female,69,9
696,18,66,High,Medium,No,7,92,Medium,Yes,2,Low,Medium,Private,Neutral,4,No,'High School',Moderate,Male,65,5
697,22,76,High,Medium,Yes,6,84,High,Yes,2,Medium,High,Public,Neutral,3,No,'High School',Near,Male,70,8
698,12,99,High,High,Yes,6,80,Medium,Yes,0,High,Medium,Public,Positive,3,No,'High School',Moderate,Male,70,7
699,26,69,Medium,Medium,Yes,7,61,Medium,Yes,1,High,High,Public,Positive,2,No,College,Near,Male,67,6
700,19,84,Medium,High,Yes,8,87,Low,Yes,2,Low,High,Public,Positive,3,No,'High School',Moderate,Female,69,2
701,17,77,Low,Medium,No,9,67,Low,Yes,0,Low,High,Public,Neutral,5,Yes,'High School',Near,Female,62,4
702,26,63,Medium,High,Yes,9,74,Medium,Yes,1,Low,Medium,Private,Positive,4,No,'High School',Near,Female,67,9
703,16,80,High,Medium,No,8,55,High,No,0,Low,Medium,Public,Positive,6,No,College,Moderate,Male,65,7
704,12,88,Medium,Medium,No,8,65,Medium,Yes,0,Low,Medium,Public,Positive,4,No,'High School',Near,Male,65,3
705,11,81,Medium,High,Yes,5,76,Medium,Yes,1,Low,Medium,Public,Neutral,3,No,Postgraduate,Far,Male,65,6
706,24,95,Medium,Low,Yes,6,73,Medium,No,3,Low,Medium,Public,Positive,2,No,'High School',Moderate,Male,69,8
707,12,72,Medium,Medium,No,8,67,Low,Yes,4,Medium,Medium,Public,Neutral,4,No,'High School',Near,Male,63,8
708,31,63,Low,High,Yes,7,74,Low,Yes,3,Medium,Medium,Public,Negative,2,No,College,Moderate,Male,66,8
709,8,97,Medium,High,Yes,8,87,Medium,Yes,0,Medium,Medium,Public,Positive,2,Yes,'High School',Near,Male,67,8
710,30,75,Medium,Medium,No,8,73,High,Yes,1,Medium,Medium,Public,Negative,3,No,College,Near,Male,69,10
711,21,83,Medium,Medium,Yes,8,75,High,Yes,1,Low,High,Public,Neutral,2,No,'High School',Far,Male,67,6
712,19,92,Medium,Medium,Yes,5,85,Medium,Yes,1,Medium,High,Private,Neutral,4,No,'High School',Near,Male,70,10
713,17,73,High,High,Yes,7,92,Medium,Yes,2,High,Medium,Private,Negative,2,No,'High School',Moderate,Male,67,3
714,22,89,High,Medium,No,6,76,Medium,Yes,2,Low,Medium,Public,Neutral,4,No,'High School',Near,Male,70,9
715,20,65,High,High,Yes,6,97,Medium,Yes,1.516785,Low,Low,Private,Negative,3,No,'High School',Moderate,Female,65,3
716,27,72,Medium,Low,No,4,68,Medium,No,0,Medium,High,Public,Negative,3,Yes,College,Near,Male,63,4
717,21,66,Medium,Medium,Yes,7,63,Medium,Yes,0,High,Medium,Public,Neutral,3,No,'High School',Near,Female,64,10
718,21,92,High,Medium,Yes,4,85,Low,Yes,1,High,Medium,Public,Negative,3,No,'High School',Far,Male,69,1
719,18,69,Low,Medium,No,8,59,Low,No,1,Low,Medium,Public,Positive,4,No,'High School',Near,Female,60,2
720,20,89,Low,Medium,Yes,9,95,Medium,Yes,3,Low,Medium,Public,Positive,3,No,'High School',Near,Male,69,6
721,22,98,Medium,Low,Yes,8,69,Medium,Yes,4,High,Medium,Private,Positive,2,No,'High School',Near,Female,72,?
722,10,81,Medium,Low,Yes,7,85,Low,Yes,1,Low,Medium,Public,Neutral,2,No,College,Near,Male,63,9
723,12,82,Low,Medium,No,9,79,High,Yes,0,Low,Medium,Private,Positive,3.034413,No,College,Moderate,Female,63,8
724,24,78,High,Low,Yes,7,53,High,Yes,0,Medium,Medium,Public,Neutral,4,Yes,'High School',Near,Male,66,2
725,21,73,Medium,Medium,No,6,85,Medium,Yes,6,Medium,High,Public,Neutral,5,No,College,Near,Male,70,2
726,19,79,Medium,High,Yes,7,90,Medium,Yes,1,Medium,Medium,Public,Negative,4,No,College,Far,Female,68,8
727,20,84,Medium,Medium,Yes,10,99,Low,Yes,2,Medium,Medium,Private,Positive,3,No,'High School',Moderate,Male,69,8
728,22,99,Medium,Medium,Yes,5,71,High,Yes,0,Medium,High,Public,Neutral,4,No,College,Near,Female,72,1
729,17,98,Low,High,No,5,75,Low,Yes,1,Low,Low,Private,Positive,3.034413,Yes,College,Near,Male,67,5
730,15,94,Low,Medium,No,8,94,Low,Yes,1,High,Medium,Public,Positive,4,No,'High School',Moderate,Male,68,2
731,21,96,Medium,High,No,7,63,Medium,Yes,1,Medium,Medium,Private,Negative,2,No,Postgraduate,Far,Female,70,1
732,14,79,High,Medium,Yes,6,59,Medium,Yes,5,Medium,High,Public,Positive,3,No,Postgraduate,Far,Male,68,3
733,22,86,Medium,Medium,Yes,5,57,High,Yes,2,Medium,Medium,Public,Positive,3,No,College,Moderate,Male,69,3
734,10,96,Medium,Medium,No,4,99,Medium,Yes,1,Medium,Medium,Private,Negative,5,No,College,Near,Female,68,10
735,26,76,Medium,Medium,No,5,64,Low,Yes,0,Medium,Medium,Public,Positive,5,No,College,Far,Female,66,9
736,23,98,Medium,Medium,No,9,88,High,Yes,1,Low,Medium,Public,Negative,4,No,Postgraduate,Moderate,Female,72,10
737,22,77,Medium,Medium,Yes,7,72,Medium,Yes,2,Medium,High,Public,Neutral,3,No,'High School',Near,Male,67,1
738,26,84,Low,High,No,4,62,Medium,No,3,High,High,Public,Positive,2,No,'High School',Near,Male,70,2
739,30,79.831143,High,Medium,Yes,9,96,Medium,Yes,1,Medium,High,Private,Neutral,3,Yes,'High School',Near,Male,73,9
740,26,98,Medium,Low,Yes,9,73,High,Yes,1,High,Low,Public,Neutral,6,No,Postgraduate,Moderate,Male,73,5
741,9,70,Medium,Medium,No,9,78,Low,Yes,1,Medium,Low,Public,Neutral,2,No,'High School',Near,Female,60,9
742,12,90,Medium,High,No,6,61,Low,Yes,2,Medium,High,Public,Neutral,3,No,College,Near,Male,67,6
743,16,81,High,Medium,Yes,7,66,Medium,Yes,3,High,High,Private,Positive,4,No,'High School',Near,Male,69,10
744,20,71,Medium,Low,No,7,87,High,Yes,1,Medium,Medium,Public,Negative,5,No,'High School',Near,Male,65,10
745,23,91,Low,High,Yes,9,67,Low,Yes,2,Low,Medium,Public,Neutral,4,No,'High School',Near,Female,70,3
746,16,82,High,Medium,Yes,6,75,Low,Yes,1.516785,Medium,Medium,Public,Neutral,3,No,College,Moderate,Female,68,8
747,21,86,Medium,Low,No,6,56,Medium,Yes,1,Low,High,Private,Negative,2,No,College,Near,Female,66,9
748,15,73,Low,High,Yes,8,93,Medium,Yes,1,Low,High,Public,Positive,4,No,College,Far,Male,65,2
749,16,79,Low,Medium,Yes,9,87,Medium,Yes,1,Low,Medium,Public,Neutral,2,No,College,Moderate,Female,64,9
750,12,85,High,High,Yes,7,88,High,Yes,1,Low,Medium,Public,Neutral,0,No,College,Far,Female,67,4
751,14,76,High,Medium,Yes,8,59,Low,Yes,3,Medium,Medium,Private,Neutral,5,No,'High School',Moderate,Male,65,8
752,12,68,High,High,Yes,7,75,Medium,Yes,1,Medium,Low,Private,Positive,4,No,'High School',Near,Male,64,5
753,14,98,High,High,No,7,51,Medium,Yes,0,Medium,Low,Public,Positive,1,Yes,'High School',Near,Male,67,6
754,26,80,Medium,Low,Yes,6,66,Medium,Yes,2,High,Medium,Public,Neutral,4,No,Postgraduate,Near,Male,70,4
755,14,89,Medium,Low,Yes,5,67,Low,No,3,Low,Low,Private,Neutral,3,No,'High School',Far,Female,63,5
756,36,76,Medium,Medium,Yes,6,96,Medium,Yes,1,Low,Medium,Private,Neutral,2,No,College,Near,Male,71,1
757,23,74,High,Low,No,6,100,Low,Yes,2,High,Low,Private,Positive,3,No,'High School',Near,Male,68,3
758,21,76,Medium,Medium,No,7,81,Medium,Yes,0,Medium,High,Private,Positive,2,No,College,Moderate,Female,67,4
759,15,76,High,High,Yes,9,76,Medium,Yes,1,Medium,High,Public,Neutral,2,No,Postgraduate,Far,Female,67,1
760,24,82,Low,Medium,Yes,7,72,Medium,Yes,0,Medium,High,Public,Positive,2,No,Postgraduate,Moderate,Female,68,3
761,17,82,High,Medium,No,6,51,Medium,Yes,1,Low,Medium,Public,Positive,3,No,Postgraduate,Moderate,Male,66,4
762,21,80,Medium,Medium,Yes,8,90,Medium,Yes,0,Medium,Medium,Public,Negative,4,No,College,Near,Male,68,9
763,35,65,High,Medium,Yes,7,84,High,Yes,0,Medium,Medium,Public,Positive,2,No,'High School',Moderate,Male,70,3
764,19,80,Low,Low,No,8,82,Medium,Yes,5,Low,Low,Public,Positive,3,No,College,Near,Male,67,3
765,27,67,Low,Medium,Yes,6,90,Medium,Yes,2,High,High,Private,Neutral,3,No,'High School',Moderate,Male,67,4
766,16,65,Low,High,No,9,96,Low,Yes,2,Low,Medium,Public,Negative,2,No,'High School',Near,Male,62,9
767,20,97,Medium,High,No,9,69,Low,Yes,0,Low,Low,Public,Negative,3,Yes,'High School',Near,Male,67,9
768,31,84,Medium,High,No,7,71,Low,Yes,4,Low,Medium,Public,Negative,4,No,'High School',Far,Male,70,1
769,16,86,High,High,No,8,99,Medium,Yes,4,Low,High,Private,Neutral,4,No,College,Near,Male,72,8
770,31,76,Medium,Medium,Yes,9,83,Medium,Yes,2,High,Medium,Private,Negative,3.034413,No,'High School',Moderate,Female,70,10
771,24,96,Low,High,No,6,93,Medium,Yes,2,Low,Medium,Public,Neutral,2,No,'High School',Moderate,Female,94,1
772,17,86,Medium,Medium,No,7,61,Medium,No,2,High,Medium,Public,Positive,3,No,'High School',Moderate,Male,66,2
773,24,91,Low,Low,Yes,7,66,High,Yes,2,Low,High,Public,Neutral,3,No,'High School',Near,Male,69,10
774,26,75,High,Medium,No,5,70,Low,Yes,0,High,Low,Private,Neutral,2,No,Postgraduate,Near,Male,68,5
775,24,98,High,Low,No,8,66,High,Yes,2,Low,Medium,Public,Positive,1,No,'High School',Moderate,Male,71,6
776,11,93,High,Medium,No,9,94,Medium,Yes,4,Low,High,Public,Neutral,4,No,'High School',Moderate,Male,69,2
777,16,94,Medium,Medium,No,7,76,Low,Yes,2,Medium,Medium,Public,Neutral,3,Yes,'High School',Near,Female,67,10
778,19,67,Low,Medium,Yes,8,98,Medium,Yes,2,Low,Medium,Private,Negative,2,No,Postgraduate,Near,Female,64,5
779,20,71,Medium,Medium,Yes,9,66,Medium,Yes,1,Medium,Low,Private,Negative,5,Yes,College,Near,Female,63,3
780,24,71,Medium,High,Yes,6,52,Medium,Yes,2,Medium,Medium,Private,Neutral,3,No,College,Far,Female,66,7
781,21,71,Medium,Medium,Yes,8,57,Low,No,2,High,Medium,Public,Positive,1,No,Postgraduate,Near,Female,66,1
782,12,94,Low,High,Yes,6,61,Medium,Yes,3,High,High,Public,Neutral,4,No,College,Near,Male,69,5
783,22,61,Low,Low,Yes,6,82,Low,Yes,4,Medium,Medium,Public,Positive,4,No,'High School',Moderate,Female,64,3
784,24,63,High,Medium,No,8,59,Low,Yes,1,Low,Medium,Public,Neutral,3,Yes,'High School',Near,Male,62,2
785,23,71,Medium,Medium,Yes,7,69,High,Yes,3,Low,Medium,Public,Positive,5,Yes,'High School',Far,Female,66,3
786,26,68,Medium,High,Yes,8,90,Medium,Yes,4,Low,High,Private,Neutral,3,No,'High School',Near,Male,70,10
787,25,69,High,Medium,Yes,7,56,Medium,Yes,2,Low,Medium,Private,Neutral,4,No,'High School',Near,Male,67,4
788,23,92,Low,Medium,No,8,54,Medium,Yes,0,High,Low,Public,Positive,1,No,Postgraduate,Near,Female,68,2
789,20,83,High,Low,No,9,77,High,Yes,0,Low,Medium,Public,Positive,3,Yes,'High School',Near,Male,67,2
790,10,60,Medium,Medium,No,9,85,Medium,Yes,0,Medium,Medium,Public,Positive,4,No,Postgraduate,Near,Male,62,3
791,23,77,Low,Medium,Yes,8,96,Medium,Yes,1.516785,High,Medium,Private,Neutral,1,Yes,College,Near,Male,67,2
792,21,76,Medium,High,Yes,8,83,Medium,Yes,0,Low,Medium,Public,Positive,5,No,'High School',Near,Male,68,6
793,22,65,Low,Medium,No,7,97,Low,Yes,2,Medium,High,Private,Neutral,4,No,'High School',Moderate,Female,64,2
794,12,87,Medium,Low,Yes,7,62,Medium,No,2,Medium,Medium,Public,Neutral,4,No,'High School',Near,Female,67.281534,1
795,14,88,Medium,Medium,No,8,67,Medium,Yes,2,High,Medium,Public,Neutral,3,No,Postgraduate,Far,Male,66,8
796,26,89,Medium,Low,Yes,7,92,Medium,Yes,2,Low,High,Public,Positive,2,No,Postgraduate,Moderate,Male,72,10
797,20,89,Medium,High,Yes,8,91,Medium,Yes,2,Medium,Medium,Public,Positive,3,No,'High School',Near,Female,72,4
798,24,60,Medium,High,Yes,9,83,High,Yes,2,Medium,Low,Public,Positive,3,Yes,'High School',Near,Male,66,2
799,20,98,Low,Medium,No,7,75,High,Yes,4,Medium,Medium,Private,Positive,1,No,College,Near,Male,72,4
800,20,93,High,Medium,Yes,4,51,Low,Yes,1,Medium,Medium,Public,Positive,3,No,'High School',Near,Male,69,2
801,26,96,High,High,Yes,10,64,Low,Yes,2,Medium,Medium,Private,Neutral,3,Yes,'High School',Near,Female,72,5
802,17,61,Medium,Low,Yes,6,58,Medium,Yes,1,Medium,High,Public,Neutral,4,No,'High School',Near,Male,60,7
803,21,97,Medium,Medium,Yes,7,53,Medium,Yes,0,High,Medium,Public,Neutral,2,No,'High School',Moderate,Male,69,6
804,17,92,Medium,High,No,8,89,Medium,Yes,0,Low,Low,Public,Positive,3,Yes,'High School',Near,Male,68,2
805,17,79.831143,Low,Medium,Yes,9,57,High,Yes,3,Low,High,Private,Neutral,2,No,College,Near,Male,69,4
806,18,64,Medium,Low,Yes,10,68,Low,Yes,1,Low,Medium,Public,Positive,5,No,'High School',Near,Male,62,8
807,21,90,Medium,Medium,Yes,6,99,Low,Yes,2,Low,High,Public,Positive,2,No,'High School',Moderate,Male,71,7
808,17,98,Medium,High,Yes,9,70,Low,Yes,1,High,Medium,Private,Negative,2,No,'High School',Near,Male,70,7
809,28,87,Low,Low,Yes,7,57,Medium,Yes,2,Medium,High,Private,Negative,3.034413,No,'High School',Moderate,Male,68,4
810,15,83,High,Medium,Yes,10,84,Medium,Yes,1,High,High,Public,Negative,2,No,College,Near,Male,68,1
811,19,98,Medium,High,No,9,90,Low,No,1,High,Medium,Private,Positive,2,No,College,Far,Female,70,7
812,17,78,Medium,High,No,7,64,Medium,Yes,0,Low,Medium,Private,Neutral,3,No,'High School',Near,Female,65,6
813,29,84,High,Medium,Yes,6,90,Medium,Yes,0,Medium,High,Public,Positive,3,No,Postgraduate,Far,Male,73,8
814,21,79,High,Medium,No,4,64,Low,Yes,0,Low,High,Public,Negative,4,No,College,Moderate,Male,66,5
815,26,97,Medium,Medium,No,8,85,Low,No,2,High,Low,Public,Neutral,3,No,'High School',Near,Male,71,8
816,11,63,High,Medium,Yes,9,56,High,Yes,2,Medium,Medium,Public,Neutral,3,No,'High School',Near,Female,62,10
817,22,80,Medium,Medium,Yes,8,71,High,Yes,2,Low,Medium,Private,Positive,3,No,'High School',Near,Female,68,8
818,25,87,Medium,High,No,4,76,Low,Yes,1,Low,High,Public,Positive,4,No,College,Far,Male,70,9
819,20,92,Medium,Low,No,5,86,Low,Yes,0,Medium,Medium,Public,Neutral,2,No,Postgraduate,Moderate,Female,68,1
820,26,83,High,Low,Yes,8,83,Medium,Yes,2,Low,High,Public,Neutral,2,No,College,Near,Female,71,3
821,17,96,Medium,Medium,Yes,10,93,Medium,Yes,2,Medium,Low,Public,Negative,4,No,'High School',Near,Female,70,6
822,28,98,Medium,Medium,Yes,7,59,Medium,Yes,1,Low,Medium,Public,Positive,3,No,'High School',Near,Male,72,4
823,34,63,Medium,High,Yes,9,83,Medium,Yes,2,Medium,Medium,Public,Negative,2,No,College,Moderate,Male,69,8
824,18,76,Medium,High,No,5,56,Medium,Yes,1,Low,Low,Public,Negative,2,No,College,Moderate,Male,63,10
825,17,61,Medium,Medium,No,7,74,High,Yes,0,Medium,Medium,Public,Neutral,2,No,Postgraduate,Near,Female,62,1
826,29,73,Medium,Medium,No,7,76,Medium,Yes,2,Low,High,Private,Neutral,3,No,'High School',Near,Female,68,5
827,29,81,Low,Medium,Yes,9,51,Low,Yes,2,Medium,Medium,Public,Positive,5,No,Postgraduate,Near,Male,70,4
828,17,96,Medium,Medium,Yes,6,54,Medium,Yes,1,Medium,Medium,Private,Positive,4,No,'High School',Near,Male,69,1
829,17,94,Medium,Medium,No,10,92,Low,Yes,2,Low,Medium,Private,Negative,2,No,'High School',Near,Male,68,10
830,18,65,High,Medium,Yes,7,64,Medium,Yes,2,High,Medium,Public,Positive,1,No,'High School',Near,Male,65,6
831,20.147624,64,Medium,Low,No,5,67,Medium,Yes,3,Low,Medium,Private,Positive,2,Yes,'High School',Near,Male,59,10
832,14,84,Medium,Medium,No,5,82,Medium,Yes,3,Low,Medium,Public,Positive,3,No,College,Far,Male,66,3
833,14,81,High,Medium,No,6,61,Low,Yes,0,Low,Medium,Public,Positive,4,No,'High School',Moderate,Male,64,5
834,15,71,Low,Medium,No,8,60,High,No,5,Low,High,Public,Positive,4,No,'High School',Far,Female,63,6
835,20,96,Medium,Medium,No,6,71,Medium,Yes,5,Low,High,Public,Neutral,3,No,College,Near,Male,72,4
836,21,97,Medium,High,Yes,6,53,Low,Yes,0,Low,Medium,Public,Negative,3,Yes,'High School',Moderate,Male,67,10
837,29,76,Medium,Medium,No,8,96,Low,Yes,2,Low,Medium,Public,Positive,2,No,Postgraduate,Moderate,Male,94,10
838,14,96,Medium,High,Yes,4,97,Low,Yes,2,Medium,Medium,Public,Negative,3,No,'High School',Near,Female,70,6
839,26,75,Low,Medium,No,6,72,Medium,Yes,0,Low,High,Public,Neutral,3,No,'High School',Near,Male,66,7
840,19,89,Low,Medium,Yes,5,60,Low,Yes,4,Medium,Medium,Public,Positive,2,No,Postgraduate,Moderate,Female,69,2
841,20,79,Medium,Low,Yes,6,74,Low,Yes,2,Low,Medium,Public,Positive,2,No,'High School',Far,Male,64,7
842,24,65,Medium,Medium,No,7,55,Low,Yes,1,Low,High,Private,Positive,3,Yes,'High School',Near,Female,63,7
843,13,97,High,High,No,7,70,Medium,Yes,1,Low,High,Public,Neutral,4,No,Postgraduate,Near,Female,71,2
844,20.147624,78,High,Medium,No,7,54,Medium,Yes,1,Medium,Medium,Public,Negative,3,Yes,'High School',Moderate,Male,65,3
845,21,89,Low,Medium,Yes,9,85,Low,Yes,1,Medium,Medium,Public,Negative,5,No,College,Far,Female,68,3
846,23,75,Medium,Medium,No,7,64,High,Yes,1.516785,Low,Medium,Public,Negative,3,Yes,'High School',Moderate,Male,64,1
847,22,61,Low,Low,Yes,10,76,High,Yes,1,High,High,Public,Positive,2,No,College,Near,Male,64,1
848,35,64,Medium,Medium,Yes,6.943491,51,Medium,Yes,2,Medium,Medium,Public,Negative,5,Yes,'High School',Near,Male,66,10
849,16,80,High,Medium,No,6,76,Medium,Yes,1,Medium,High,Public,Positive,4,No,College,Near,Male,68,6
850,17,88,Medium,Medium,No,10,50,Medium,Yes,3,Low,High,Public,Neutral,5,No,College,Moderate,Female,67,9
851,16,73,Low,High,Yes,7,96,Medium,Yes,1,Medium,Medium,Private,Positive,3,No,'High School',Moderate,Female,67.281534,9
852,17,88,Medium,Medium,Yes,10,75,Medium,Yes,2,Medium,Medium,Public,Neutral,3,No,'High School',Near,Male,68,1
853,16,88,Low,Medium,No,7,55,Medium,Yes,3,Low,Low,Public,Neutral,3.034413,No,Postgraduate,Near,Male,66,7
854,27,88,Medium,Medium,No,7,67,Medium,Yes,3,High,Medium,Public,Neutral,4,No,College,Far,Male,71,6
855,29,80,Medium,High,Yes,8,52,Medium,Yes,4,Low,Medium,Public,Positive,4,No,'High School',Moderate,Female,71,4
856,17,97,Medium,High,No,7,77,Medium,Yes,0,Low,Medium,Private,Negative,4,No,College,Far,Male,68,3
857,15,80,High,Low,No,9,56,High,Yes,3,Medium,Medium,Public,Neutral,3,Yes,'High School',Near,Female,64,9
858,23,78,Medium,Medium,Yes,10,75.169371,Low,Yes,3,Medium,Medium,Public,Negative,4,No,'High School',Moderate,Male,67,10
859,17,68,High,Medium,Yes,4,65,High,Yes,0,Medium,Medium,Private,Positive,2,No,'High School',Moderate,Male,64,5
860,24,72,High,Low,Yes,8,88,High,Yes,3,Low,Medium,Public,Positive,2,No,'High School',Near,Female,68,8
861,21,62,Medium,Low,No,6,74,High,Yes,0,Low,High,Private,Positive,3,Yes,Postgraduate,Far,Male,62,4
862,11,85,Medium,Low,Yes,4,92,Low,Yes,0,Medium,High,Public,Neutral,1,No,College,Near,Male,64,4
863,29,70,Low,High,No,8,97,Low,Yes,3,Low,High,Public,Positive,3,No,Postgraduate,Moderate,Male,70,6
864,31,72,Medium,Medium,No,8,98,High,Yes,0,Low,Medium,Public,Neutral,4,No,College,Far,Male,68,6
865,16,91,Medium,Medium,No,8,63,High,Yes,2,Medium,High,Public,Neutral,3,No,College,Near,Female,69,3
866,18,73,Low,Medium,Yes,8,88,Low,Yes,3,Low,Medium,Public,Positive,4,No,College,Moderate,Male,65,2
867,22,70,Medium,High,Yes,8,72,Medium,Yes,2,High,Medium,Public,Neutral,3,No,'High School',Near,Male,67,9
868,22,67,High,Medium,No,6,71,Low,Yes,2,Medium,Medium,Public,Positive,2,No,College,Moderate,Male,65,2
869,24,91,High,Medium,No,7,93,Low,Yes,0,Medium,Medium,Public,Positive,2,No,'High School',Moderate,Male,71,9
870,32,65,Medium,Low,Yes,8,57,Low,Yes,2,Low,Medium,Public,Positive,3,No,'High School',Moderate,Female,65,8
871,19,78,Medium,Medium,Yes,9,74,Low,Yes,2,Low,Medium,Public,Positive,5,No,'High School',Moderate,Female,66,10
872,15,80,High,Medium,No,7,80,Medium,Yes,0,Low,Low,Public,Neutral,5,No,'High School',Near,Female,65,7
873,12,87,Medium,Medium,Yes,7,53,Low,Yes,2,Medium,Medium,Private,Neutral,1,No,College,Near,Male,65,5
874,16,85,Low,Medium,No,7,93,High,Yes,1,Medium,High,Public,Positive,3,No,'High School',Near,Male,68,3
875,20,92,Medium,Medium,Yes,5,66,Medium,Yes,2,Medium,Medium,Public,Negative,2,Yes,College,Moderate,Male,68,2
876,31,62,High,Medium,No,8,83,Medium,Yes,0,Medium,High,Private,Neutral,2,Yes,College,Near,Female,67,8
877,17,72,Low,Medium,Yes,5,96,High,Yes,3,High,Medium,Public,Negative,3,No,'High School',Moderate,Male,65,2
878,21,71,Medium,Low,No,8,86,Medium,Yes,2,Medium,High,Public,Neutral,2,No,College,Near,Male,66,8
879,20,66,Medium,Medium,Yes,7,94,Low,Yes,0,Medium,Low,Public,Neutral,4,No,'High School',Moderate,Female,63,5
880,27,72,High,High,Yes,5,53,Medium,Yes,1,High,Medium,Private,Neutral,5,No,Postgraduate,Near,Male,70,9
881,35,72,High,High,Yes,5,75,Medium,Yes,1,Low,Medium,Public,Positive,5,No,College,Near,Male,72,4
882,17,81,Medium,High,No,6,78,Medium,Yes,2,Low,Medium,Private,Positive,2,No,'High School',Moderate,Male,67,8
883,17,87,High,Low,Yes,6,84,Medium,Yes,0,Medium,Medium,Public,Positive,3,No,College,Far,Male,67,7
884,26,75,Low,Medium,Yes,9,56,Medium,Yes,1,Low,Medium,Public,Positive,5,No,'High School',Moderate,Male,66,8
885,24,89,Low,Medium,No,7,83,Medium,No,1,Low,Low,Public,Neutral,3,No,'High School',Moderate,Male,66,5
886,31,73,High,Medium,Yes,8,57,Medium,Yes,2,Low,High,Public,Neutral,4,No,'High School',Far,Male,69,2
887,24,72,Medium,Low,Yes,9,53,Medium,Yes,0,Low,High,Private,Neutral,4,Yes,'High School',Moderate,Male,62,7
888,18,82,Low,Medium,No,9,73,Low,Yes,1.516785,Low,Medium,Public,Positive,4,No,College,Near,Female,66,3
889,24,61,Medium,Medium,No,7,80,High,Yes,0,Low,Medium,Public,Positive,3,No,Postgraduate,Moderate,Male,64,10
890,27,63,High,Medium,Yes,6,98,Medium,Yes,1,Low,High,Public,Positive,2,No,'High School',Moderate,Female,67,10
891,25,77,High,High,No,8,85,Medium,Yes,2,Medium,Medium,Public,Positive,1,No,College,Near,Male,71,10
892,23,98,High,Medium,Yes,6,80,Medium,Yes,1,Medium,Medium,Public,Positive,2,No,'High School',Moderate,Male,73,10
893,26,89,Medium,Low,Yes,10,61,Low,Yes,0,Medium,High,Public,Neutral,3,No,'High School',Moderate,Female,68,2
894,27,64,High,Low,Yes,8,58,Medium,Yes,2,High,High,Public,Neutral,1,No,Postgraduate,Far,Male,66,3
895,28,94,Medium,High,Yes,7,80,Medium,Yes,3,Low,High,Public,Positive,4,No,Postgraduate,Far,Male,75,4
896,24,89,Medium,High,Yes,8,61,Medium,Yes,1,Low,High,Public,Positive,3,No,'High School',Near,Female,72,10
897,19,84,High,Low,Yes,7,85,Medium,Yes,1,High,Medium,Private,Neutral,3,No,'High School',Near,Male,68,7
898,21,93,Medium,Medium,Yes,6,56,Medium,No,1,Low,Medium,Public,Positive,3,No,'High School',Near,Male,68,10
899,27,76,Low,High,Yes,8,67,Medium,Yes,1,Medium,Medium,Public,Positive,4,No,'High School',Near,Male,67.281534,1
900,15,69,Medium,Medium,Yes,7,89,Medium,Yes,1,Medium,High,Public,Negative,2,No,College,Moderate,Female,63,6
901,22,80,Medium,High,Yes,10,92,Medium,Yes,0,Medium,High,Public,Positive,2,No,'High School',Near,Female,70,6
902,18,82,Low,Medium,Yes,6,67,Low,Yes,1,High,Low,Private,Positive,3,No,Postgraduate,Moderate,Male,66,8
903,20,82,Low,Low,Yes,8,60,Medium,Yes,3,Medium,High,Public,Positive,4,No,'High School',Moderate,Male,66,2
904,28,83,Medium,High,No,6,98,Medium,Yes,1,Low,High,Private,Neutral,2,No,Postgraduate,Moderate,Male,72,2
905,21,98,Low,Medium,No,6,88,Medium,Yes,1,Medium,Low,Public,Neutral,3,No,Postgraduate,Near,Male,71,1
906,20,96,High,Medium,No,4,90,Medium,Yes,3,Low,Medium,Private,Neutral,2,No,College,Near,Male,72,3
907,12,95,Medium,Medium,No,8,61,High,Yes,4,High,High,Private,Neutral,1,No,College,Near,Male,69,7
908,24,92,Low,High,Yes,6,71,Low,Yes,2,Medium,High,Public,Positive,2,No,'High School',Near,Male,71,8
909,24,98,Medium,Low,No,9,53,Medium,Yes,3,High,Low,Private,Negative,2,No,Postgraduate,Far,Male,69,7
910,33,64,High,Medium,No,8,55,Medium,Yes,1,Medium,High,Public,Neutral,3,No,College,Moderate,Female,68,9
911,18,71,Low,Low,Yes,7,61,Low,Yes,2,Low,Medium,Public,Negative,4,No,College,Near,Male,61,8
912,21,80,Medium,High,No,5,65,High,Yes,2,Medium,Low,Private,Neutral,1,No,Postgraduate,Moderate,Male,68,8
913,21,94,High,Medium,Yes,8,100,Low,Yes,0,Low,Medium,Public,Neutral,3,No,Postgraduate,Near,Male,72,2
914,29,80,Medium,Medium,Yes,6,71,Medium,Yes,0,Medium,Medium,Public,Positive,3,No,College,Moderate,Female,70,1
915,19,90,High,Medium,Yes,5,85,High,Yes,0,Medium,High,Private,Positive,5,No,Postgraduate,Near,Female,73,6
916,22,66,Medium,High,No,8,95,Low,Yes,3,Medium,Medium,Private,Positive,3,No,'High School',Moderate,Female,67,7
917,24,70,Medium,High,No,5,62,Medium,Yes,2,Low,Medium,Private,Negative,4,Yes,College,Near,Male,65,6
918,21,89,Medium,Medium,No,4,57,Medium,Yes,1,High,Medium,Private,Positive,2,No,'High School',Near,Female,68,7
919,17,67,Low,High,Yes,9,62,High,Yes,3,Medium,Medium,Public,Positive,3,No,'High School',Near,Male,65,8
920,21,74,High,Medium,No,6,94,Medium,Yes,1,Low,High,Public,Positive,1,No,'High School',Near,Male,97,2
921,26,71,High,Low,Yes,4,83,Low,Yes,1,Medium,Medium,Public,Negative,3,No,College,Moderate,Male,66,1
922,14,74,High,High,Yes,6,73,High,Yes,2,Medium,Medium,Private,Positive,3,No,'High School',Near,Female,67,10
923,21,88,High,Medium,No,6,91,Medium,Yes,2,High,Medium,Public,Neutral,1,No,'High School',Moderate,Female,70,8
924,16,75,High,Medium,Yes,9,62,Medium,Yes,3,Low,Medium,Public,Positive,4,No,'High School',Moderate,Female,66,8
925,27,82,Medium,High,Yes,5,62,Low,Yes,1,Low,High,Private,Neutral,4,No,'High School',Moderate,Female,69,8
926,11,64,High,Medium,Yes,5,78,Low,Yes,2,Medium,High,Private,Neutral,4,No,College,Moderate,Male,62,10
927,17,79.831143,Medium,Low,Yes,8,90,High,Yes,1,High,Low,Public,Negative,3,No,'High School',Near,Male,68,7
928,22,75,Medium,High,Yes,6,63,Low,Yes,1,Low,Medium,Public,Positive,2,No,College,Near,Male,67,2
929,29,86,Medium,Medium,Yes,7,61,Medium,Yes,0,Medium,Medium,Public,Negative,4,No,'High School',Far,Female,68,4
930,20,89,High,Medium,Yes,6,74,Medium,Yes,1,Low,High,Private,Neutral,2,No,'High School',Moderate,Male,69,9
931,17,68,Medium,Medium,Yes,10,57,Medium,Yes,1,High,Medium,Private,Positive,1,Yes,'High School',Moderate,Female,62,8
932,31,95,High,Medium,Yes,5,87,Medium,Yes,2,Low,Medium,Public,Neutral,3,No,Postgraduate,Moderate,Male,75,4
933,11,85,Medium,Medium,No,7,79,Low,Yes,2,High,Low,Public,Positive,3,No,'High School',Near,Male,65,8
934,7,77,High,Medium,No,9,76,Medium,Yes,2,Medium,High,Public,Negative,3,No,College,Moderate,Male,63,10
935,23,67,High,Medium,No,6,94,Low,Yes,1,Medium,Medium,Public,Positive,2,No,College,Far,Male,66,6
936,17,98,Low,High,No,6,87,High,No,3,Medium,Medium,Private,Positive,5,No,College,Near,Female,71,9
937,14,90,High,Medium,Yes,8,57,Medium,Yes,0,Medium,Medium,Public,Positive,3,Yes,College,Moderate,Male,66,1
938,24,68,Medium,Medium,No,6.943491,71,Medium,Yes,2,Medium,Medium,Public,Neutral,4,No,College,Near,Male,66,6
939,21,74,Medium,High,No,6,66,Low,Yes,1,Medium,High,Private,Negative,4,No,'High School',Near,Male,66,4
940,17,92,High,High,Yes,6.943491,90,Medium,Yes,1,High,Low,Public,Positive,3,No,'High School',Moderate,Male,71,3
941,12,88,Medium,Medium,Yes,7,86,High,Yes,3,Medium,High,Public,Positive,3,Yes,'High School',Moderate,Male,68,5
942,25,91,Medium,Medium,No,8,74,High,Yes,1,Medium,High,Private,Positive,3,No,College,Moderate,Male,71,10
943,24,78,Medium,Medium,Yes,9,91,Low,Yes,0,High,High,Public,Negative,3,No,Postgraduate,Far,Female,68,8
944,19,89,Low,Medium,No,8,71,Medium,Yes,2,Low,High,Public,Positive,4,No,'High School',Near,Male,68,10
945,31,75,Medium,Medium,No,7,90,Low,Yes,2,Medium,High,Public,Neutral,2,Yes,'High School',Moderate,Male,68,6
946,14,68,Medium,Medium,Yes,6,52,Medium,Yes,2,Medium,Medium,Public,Positive,2,No,College,Near,Male,62,1
947,11,85,High,Low,Yes,10,57,High,Yes,0,Medium,High,Public,Neutral,5,No,'High School',Near,Male,65,6
948,16,99,Low,High,No,6,88,High,Yes,2,Low,Low,Public,Neutral,3,No,Postgraduate,Near,Male,71,7
949,20,72,Medium,High,Yes,7,56,Low,Yes,0,Low,Medium,Public,Negative,6,Yes,College,Moderate,Male,63,6
950,21,78,High,Medium,No,8,84,Low,Yes,1,High,Low,Public,Positive,4,No,'High School',Near,Male,68,3
951,19,87,High,Low,Yes,8,86,Low,Yes,1,Medium,High,Public,Positive,4,No,'High School',Moderate,Female,69,9
952,22,82,High,High,No,10,83,Medium,Yes,1,Low,High,Private,Neutral,2,Yes,College,Moderate,Male,69,10
953,12,94,Medium,High,Yes,7,91,Low,Yes,3,Medium,Medium,Private,Positive,3,No,Postgraduate,Near,Female,71,10
954,29,90,Medium,High,No,7,76,Medium,Yes,0,Low,Medium,Public,Neutral,1,No,Postgraduate,Moderate,Female,71,4
955,20,62,Medium,Medium,Yes,9,95,Low,Yes,0,Medium,Medium,Private,Neutral,3,Yes,'High School',Near,Male,62,5
956,27,100,Low,Low,Yes,7,78,Low,Yes,2,Medium,Medium,Public,Positive,2,No,'High School',Near,Male,70,5
957,22,90,High,High,No,8,75,High,Yes,1,Low,Low,Private,Neutral,3,No,College,Moderate,Male,70,3
958,23,95,Medium,Medium,Yes,7,75,Medium,Yes,2,High,Medium,Public,Positive,2,No,College,Near,Male,73,2
959,23,86,Medium,High,Yes,8,96,Low,Yes,3,Medium,Medium,Private,Positive,2,No,'High School',Moderate,Female,71,8
960,23,94,Medium,Low,Yes,8,62,Medium,Yes,2,Low,Medium,Public,Positive,0,No,Postgraduate,Moderate,Female,69,7
961,24,64,Medium,High,Yes,6,85,High,Yes,0,High,Low,Private,Neutral,3,Yes,Postgraduate,Near,Male,66,5
962,28,74,Medium,Low,Yes,4,62,Medium,Yes,1,Medium,Medium,Private,Neutral,3,No,'High School',Moderate,Male,65,1
963,21,95,High,Medium,No,4,55,Medium,Yes,2,Medium,High,Private,Neutral,1,No,College,Near,Male,71,10
964,24,68,Medium,Medium,Yes,4,98,High,Yes,2,Medium,High,Public,Negative,2,No,'High School',Near,Male,68,1
965,19,63,Medium,High,Yes,7,56,Medium,Yes,2,Low,Medium,Private,Positive,3,No,'High School',Near,Female,64,8
966,29,92,Low,Low,Yes,4,84,Medium,Yes,2,Low,Medium,Public,Negative,3,No,Postgraduate,Near,Male,71,4
967,16,93,Low,Medium,No,7,71,Medium,Yes,0,Medium,High,Public,Positive,2,No,'High School',Near,Male,67,4
968,31,67,Medium,Low,No,7,92,High,Yes,2,Medium,Medium,Public,Negative,3,No,'High School',Far,Female,66,9
969,20,94,Low,High,Yes,8,89,Medium,Yes,1,Low,Medium,Public,Positive,4,No,'High School',Near,Male,71,2
970,11,87,Low,Medium,No,8,57,High,Yes,0,Low,Medium,Public,Negative,2,No,'High School',Moderate,Male,62,5
971,21,81,High,Medium,No,8,73,Medium,Yes,3,Low,Medium,Public,Positive,2,Yes,'High School',Near,Male,67,6
972,16,79.831143,Medium,Low,Yes,8,51,Medium,Yes,3,Low,Medium,Public,Neutral,2,No,College,Near,Male,67,6
973,25,77,Low,Medium,Yes,7,71,Medium,Yes,0,Medium,Medium,Public,Negative,3,No,'High School',Near,Female,66,10
974,16,68,Low,Medium,Yes,7,85,High,Yes,1,Low,High,Private,Positive,3,No,Postgraduate,Moderate,Female,64,3
975,17,71,Low,Medium,Yes,6,62,Medium,Yes,2,Low,Medium,Public,Neutral,3,Yes,College,Near,Male,62,10
976,9,80,Medium,High,No,7,91,Low,Yes,1,Medium,Medium,Public,Neutral,3,No,College,Near,Female,65,6
977,17,81,Medium,Low,Yes,5,53,Low,Yes,0,Medium,Medium,Public,Neutral,1,No,College,Near,Male,63,10
978,5,92,Medium,Medium,Yes,9,52,Medium,Yes,2,High,Medium,Private,Neutral,4,Yes,College,Moderate,Female,64,10
979,10,92,Low,High,Yes,6,51,Low,Yes,1,Medium,Medium,Private,Neutral,3,No,'High School',Near,Female,65,5
980,25,83,Medium,High,No,7,64,Medium,Yes,0,Low,Medium,Public,Neutral,2,No,College,Moderate,Male,68,8
981,25,91,Medium,High,Yes,7,73,Medium,Yes,2,Low,Medium,Public,Positive,3,No,'High School',Near,Female,72,4
982,23,68,Medium,Medium,Yes,9,55,Medium,Yes,0,Low,Medium,Public,Positive,3,No,College,Moderate,Male,64,10
983,14,62,High,Medium,No,4,100,Low,Yes,1,Low,Medium,Public,Neutral,3,No,'High School',Near,Male,62,10
984,20,95,Medium,Low,Yes,7,100,Low,No,3,Low,Medium,Private,Neutral,2,No,'High School',Near,Female,69,3
985,20,63,Low,Low,Yes,6.943491,76,Medium,Yes,3,Medium,Medium,Public,Neutral,4,No,Postgraduate,Near,Female,64,6
986,13,70,High,Medium,No,10,78,Medium,Yes,1,Low,Medium,Public,Negative,2,No,'High School',Far,Female,61,10
987,29,88,Medium,High,No,7,96,Low,Yes,2,Low,Low,Public,Positive,2,No,'High School',Near,Female,72,9
988,25,76,Medium,Low,Yes,6,88,Low,Yes,1,Medium,Medium,Private,Negative,3,No,College,Far,Male,66,8
989,19,95,High,Low,No,10,58,Low,Yes,2,High,Medium,Public,Positive,3,No,'High School',Near,Male,69,10
990,20,72,Medium,Medium,No,8,90,High,No,2,Low,Low,Private,Neutral,2,No,College,Near,Female,65,8
991,21,60,Medium,Medium,Yes,9,62,Medium,Yes,2,Low,Medium,Public,Positive,3,No,'High School',Near,Male,64,3
992,8,72,Low,Medium,Yes,5,72,Medium,Yes,3,High,Low,Private,Positive,4,No,'High School',Near,Female,62,1
993,19,83,Medium,Medium,No,8,77,High,Yes,1,Low,Medium,Public,Positive,4,No,'High School',Far,Male,66,3
994,16,75,Low,Low,Yes,5,86,Medium,Yes,0,Low,Medium,Public,Positive,1,No,College,Moderate,Female,62,3
995,14,81,Medium,Medium,Yes,5,58,High,Yes,3,Low,High,Public,Negative,4,No,Postgraduate,Moderate,Male,66,6
996,18,95,Medium,High,No,8,54,Medium,Yes,2,High,Medium,Public,Neutral,3,No,College,Moderate,Female,70,3
997,31,96,Medium,Medium,Yes,8,93,Low,Yes,3,Low,Medium,Public,Positive,3,No,'High School',Near,Male,75,2
998,24,71,Low,High,Yes,6,91,Medium,Yes,1.516785,High,Medium,Public,Neutral,2,No,'High School',Far,Female,67,9
999,17,78,Low,Medium,Yes,9,76,Low,Yes,4,Medium,Medium,Public,Positive,2,No,College,Near,Male,66,6
1000,23,82,Medium,High,No,6,83,Medium,Yes,2,Medium,Medium,Private,Positive,3,No,Postgraduate,Moderate,Male,71,5
